@relation cylinder-bands-weka.filters.unsupervised.attribute.Discretize-B10-M-1.0-R21-weka.filters.unsupervised.attribute.Discretize-B10-M-1.0-R17-weka.filters.unsupervised.attribute.Discretize-B10-M-1.0-R24-weka.filters.unsupervised.attribute.Discretize-B10-M-1.0-R26-weka.filters.unsupervised.attribute.Discretize-B10-M-1.0-R28-weka.filters.unsupervised.attribute.Discretize-B10-M-1.0-R30-36-weka.filters.unsupervised.attribute.Discretize-B10-M-1.0-R38

@attribute timestamp {19900330,19900409,19900414,19900417,19900418,19900425,19900426,19900505,19900507,19900509,19900510,19900511,19900514,19900517,19900518,19900524,19900602,19900603,19900606,19900608,19900611,19900612,19900614,19900615,19900617,19900620,19900621,19900622,19900625,19900626,19900702,19900705,19900706,19900707,19900708,19900710,19900718,19900719,19900723,19900726,19900727,19900730,19900801,19900804,19900805,19900806,19900807,19900809,19900810,19900811,19900812,19900813,19900814,19900818,19900819,19900820,19900821,19900824,19900825,19900830,19900831,19900909,19900910,19900913,19900915,19900920,19900921,19900924,19900926,19901001,19901002,19901003,19901004,19901005,19901006,19901007,19901008,19901010,19901014,19901017,19901023,19901027,19901030,19901031,19901101,19901102,19901105,19901106,19901107,19901108,19901109,19901113,19901114,19901115,19901116,19901117,19901119,19901120,19901121,19901124,19901125,19901206,19901208,19901209,19901210,19901211,19901212,19901214,19901215,19901218,19901219,19901222,19901230,19910103,19910104,19910108,19910109,19910111,19910112,19910113,19910114,19910117,19910118,19910123,19910125,19910127,19910129,19910130,19910131,19910201,19910206,19910208,19910211,19910212,19910213,19910214,19910215,19910216,19910220,19910221,19910223,19910227,19910301,19910302,19910303,19910304,19910306,19910307,19910308,19910309,19910310,19910311,19910314,19910316,19910317,19910318,19910319,19910320,19910322,19910323,19910325,19910327,19910330,19910402,19910404,19910405,19910406,19910409,19910415,19910416,19910419,19910422,19910423,19910426,19910428,19910430,19910501,19910502,19910503,19910505,19910507,19910508,19910511,19910517,19910524,19910528,19910529,19910531,19910603,19910604,19910605,19910607,19910609,19910610,19910611,19910614,19910617,19910618,19910619,19910622,19910626,19910627,19910629,19910706,19910707,19910712,19910718,19910719,19910724,19910727,19910729,19910730,19910802,19910804,19910806,19910807,19910809,19910810,19910815,19910817,19910818,19910822,19910829,19910903,19910915,19910917,19910920,19910923,19910924,19911102,19911103,19911104,19911124,19911203,19911209,19911211,19920105,19920110,19920114,19920115,19920205,19920207,19920208,19920220,19920317,19920320,19920326,19920402,19920405,19920408,19920416,19920515,19920523,19920529,19920530,19920531,19920603,19920610,19920705,19920709,19920712,19920808,19920822,19920826,19920911,19920915,19920918,19920920,19921001,19921004,19921125,19921129,19930113,19930205,19930217,19930219,19930227,19930309,19930407,19930421,19930514,19930624,19930906,19930908,19930915,19930916,19930928,19931008,19940904,19940927,19941001,19941004,19941005,19941007,19941009,19941010,tabloid}
@attribute cylinder_number {1351,3,aa067,aa1,aa11,aa17,aa28,aa29,aa40,aa43,aa45,aa56,aa58,aa66,aa7,aa70,aa97,b125,b181,b6,b7,e26,e302,e303,e310,e38,e510,e67,e68,e69,e72,e74,e77,e78,e81,e83,e84,e85,e86,e90,e91,e92,ee304,f067,f103,f108,f121,f126,f131,f133,f135,f146,f159,f169,f170,f19,f192,f219,f227,f236,f237,f242,f25,f257,f26,f261,f264,f267,f294,f308,f310,f321,f329,f331,f337,f372,f374,f38,f383,f416,f450,f466,f482,f492,f510,f569,f571,f590,f601,f615,f620,f629,f633,f670,f672,f679,f685,f72,f76,f77,f85,f89,f98,g089,g108,g145,g150,g3,g38,g404,g407,g412,g416,g433,g459,g462,g465,g467,g48,g496,g5,g518,g519,g55,g572,g60,g604,g608,g625,g628,g634,g640,g648,g657,g67,g69,g71,g78,g81,g84,g95,g98,i010,i25,i301,i303,i305,i309,i311,i317,i320,i324,i325,i331,i337,i343,i346,i347,i349,i353,i354,i357,i358,i365,i366,i383,i400,i46,i49,i820,j15,j29,j33,j34,j38,j40,j42,j43,j44,j45,j582,j6,j60,j62,j68,j70,j9,m103,m200,m208,m254,m257,m260,m272,m309,m332,m337,m362,m372,m374,m39,m4,m402,m410,m432,m45,m65,m74,m93,o1,o14,o15,o2,o21,o28,o4,o5,o6,o7,o8,r1,r14,r15,r17,r18,r2,r22,r23,r25,r29,r3,r30,r32,r34,r38,r4,r43,r5,r6,r7,r9,s180,s21,t117,t133,t176,t178,t195,t200,t204,t218,t233,t234,t244,t245,t26,t280,t281,t284,t30,t31,t312,t313,t32,t333,t351,t365,t368,t380,t383,t78,t8,v376,w30,w357,w364,w368,w395,w406,w516,w717,w785,w90,w92,x001,x019,x102,x103,x108,x116,x118,x12,x126,x127,x129,x13,x132,x135,x138,x139,x141,x146,x147,x151,x153,x155,x158,x160,x163,x18,x184,x185,x195,x196,x197,x199,x201,x203,x206,x21,x216,x220,x221,x232,x235,x242,x243,x249,x25,x251,x253,x255,x264,x266,x271,x272,x273,x281,x282,x29,x291,x292,x295,x297,x304,x308,x315,x326,x333,x342,x346,x35,x350,x351,x352,x356,x36,x367,x37,x374,x377,x381,x388,x389,x390,x396,x400,x405,x408,x414,x420,x423,x53,x57,x60,x65,x66,x67,x7,x713,x720,x727,x742,x746,x750,x753,x754,x760,x766,x768,x770,x771,x776,x777,x779,x787,x788,x791,x793,x795,x798,x799,x80,x802,x804,x809,x817,x818,x819,x820,x821,x823,x826,x828,x830,x831,x837,x838,x84,x89,x9,x91,x95,x96,y209,y216,y228,y255,y270}
@attribute customer {1910,abbey,abbeypress,abbypress,adco,ames,austads,belk,belks,best,bestprod,brendls,burdines,campingworld,casliving,casualliving,cenpurch,childcraft,childworld,colorfulimage,colortil,colortile,competitivedge,cvs,downs,dunns,eckerd,eckerds,exxon,galls,global,globalequp,guideposts,gurney,hanhouse,hanoverhouse,hanoverhse,hanovrhous,hanovrhouse,hills,homeshop,homeshopping,jamesway,jcp,jcpenny,jfk,kidsrus,kmart,lazarus,lurias,massey,mervyns,modmat,natlwildlife,ntlwildlife,oldvillageshop,penney,rei,roses,sears,servmerch,sheplers,target,toysrus,tvguide,uscav,venture,walmart,wards,woolworth,woolwrth,yieldhouse}
@attribute job_number numeric
@attribute grain_screened {45,no,yes}
@attribute ink_color {0.200,key}
@attribute proof_on_ctd_ink {17,no,yes}
@attribute blade_mfg {84,benton,uddeholm}
@attribute cylinder_division {0.8125,gallatin}
@attribute paper_type {27,coated,super,uncoated}
@attribute ink_type {coated,cover,uncoated}
@attribute direct_steam {1865,no,yes}
@attribute solvent_type {line,naptha,xylol}
@attribute type_on_cylinder {no,yes}
@attribute press_type {albert70,motter70,motter94,woodhoe70}
@attribute press {802,813,815,816,821,824,827,828}
@attribute unit_number {'\'(-inf-1.9]\'','\'(1.9-2.8]\'','\'(2.8-3.7]\'','\'(3.7-4.6]\'','\'(4.6-5.5]\'','\'(5.5-6.4]\'','\'(6.4-7.3]\'','\'(7.3-8.2]\'','\'(8.2-9.1]\'','\'(9.1-inf)\''}
@attribute cylinder_size {0.7,catalog,spiegel,tabloid}
@attribute paper_mill_location {canadian,mideuropean,northus,scandanavian,southus}
@attribute plating_tank {40,1910,1911}
@attribute proof_cut {'\'(-inf-29.75]\'','\'(29.75-34.5]\'','\'(34.5-39.25]\'','\'(39.25-44]\'','\'(44-48.75]\'','\'(48.75-53.5]\'','\'(53.5-58.25]\'','\'(58.25-63]\'','\'(63-67.75]\'','\'(67.75-inf)\''}
@attribute viscosity numeric
@attribute caliper {.200,0.133,0.167,0.2,0.200,0.217,0.233,0.25,0.267,0.283,0.3,0.300,0.333,0.35,0.367,0.4,0.433,0.467,0.5,0.533,band}
@attribute ink_temperature {'\'(-inf-12.53]\'','\'(12.53-13.86]\'','\'(13.86-15.19]\'','\'(15.19-16.52]\'','\'(16.52-17.85]\'','\'(17.85-19.18]\'','\'(19.18-20.51]\'','\'(20.51-21.84]\'','\'(21.84-23.17]\'','\'(23.17-inf)\''}
@attribute humifity numeric
@attribute roughness {'\'(-inf-0.175625]\'','\'(0.175625-0.295]\'','\'(0.295-0.414375]\'','\'(0.414375-0.53375]\'','\'(0.53375-0.653125]\'','\'(0.653125-0.7725]\'','\'(0.7725-0.891875]\'','\'(0.891875-1.01125]\'','\'(1.01125-1.130625]\'','\'(1.130625-inf)\''}
@attribute blade_pressure numeric
@attribute varnish_pct {'\'(-inf-3.58]\'','\'(3.58-7.16]\'','\'(7.16-10.74]\'','\'(10.74-14.32]\'','\'(14.32-17.9]\'','\'(17.9-21.48]\'','\'(21.48-25.06]\'','\'(25.06-28.64]\'','\'(28.64-32.22]\'','\'(32.22-inf)\''}
@attribute press_speed numeric
@attribute ink_pct {'\'(-inf-44.59]\'','\'(44.59-48.18]\'','\'(48.18-51.77]\'','\'(51.77-55.36]\'','\'(55.36-58.95]\'','\'(58.95-62.54]\'','\'(62.54-66.13]\'','\'(66.13-69.72]\'','\'(69.72-73.31]\'','\'(73.31-inf)\''}
@attribute solvent_pct {'\'(-inf-25.14]\'','\'(25.14-28.28]\'','\'(28.28-31.42]\'','\'(31.42-34.56]\'','\'(34.56-37.7]\'','\'(37.7-40.84]\'','\'(40.84-43.98]\'','\'(43.98-47.12]\'','\'(47.12-50.26]\'','\'(50.26-inf)\''}
@attribute ESA_Voltage {'\'(-inf-1.6]\'','\'(1.6-3.2]\'','\'(3.2-4.8]\'','\'(4.8-6.4]\'','\'(6.4-8]\'','\'(8-9.6]\'','\'(9.6-11.2]\'','\'(11.2-12.8]\'','\'(12.8-14.4]\'','\'(14.4-inf)\''}
@attribute ESA_Amperage {'\'(-inf-0.6]\'','\'(0.6-1.2]\'','\'(1.2-1.8]\'','\'(1.8-2.4]\'','\'(2.4-3]\'','\'(3-3.6]\'','\'(3.6-4.2]\'','\'(4.2-4.8]\'','\'(4.8-5.4]\'','\'(5.4-inf)\''}
@attribute wax {'\'(-inf-0.31]\'','\'(0.31-0.62]\'','\'(0.62-0.93]\'','\'(0.93-1.24]\'','\'(1.24-1.55]\'','\'(1.55-1.86]\'','\'(1.86-2.17]\'','\'(2.17-2.48]\'','\'(2.48-2.79]\'','\'(2.79-inf)\''}
@attribute hardener {'\'(-inf-0.3]\'','\'(0.3-0.6]\'','\'(0.6-0.9]\'','\'(0.9-1.2]\'','\'(1.2-1.5]\'','\'(1.5-1.8]\'','\'(1.8-2.1]\'','\'(2.1-2.4]\'','\'(2.4-2.7]\'','\'(2.7-inf)\''}
@attribute roller_durometer {'\'(-inf-31.2]\'','\'(31.2-34.4]\'','\'(34.4-37.6]\'','\'(37.6-40.8]\'','\'(40.8-44]\'','\'(44-47.2]\'','\'(47.2-50.4]\'','\'(50.4-53.6]\'','\'(53.6-56.8]\'','\'(56.8-inf)\''}
@attribute current_density {30,33,35,37,40,42,45}
@attribute anode_space_ratio {'\'(-inf-86.783]\'','\'(86.783-90.236]\'','\'(90.236-93.689]\'','\'(93.689-97.142]\'','\'(97.142-100.595]\'','\'(100.595-104.048]\'','\'(104.048-107.501]\'','\'(107.501-110.954]\'','\'(110.954-114.407]\'','\'(114.407-inf)\''}
@attribute chrome_content {90,95,100}
@attribute Class {band,noband}

@data
19910108,x126,tvguide,25503,yes,key,yes,benton,gallatin,uncoated,uncoated,no,line,yes,motter94,821,'\'(1.9-2.8]\'',tabloid,northus,1911,'\'(53.5-58.25]\'',46,0.2,'\'(16.52-17.85]\'',78,'\'(0.653125-0.7725]\'',20,'\'(10.74-14.32]\'',1700,'\'(48.18-51.77]\'','\'(34.56-37.7]\'','\'(-inf-1.6]\'','\'(-inf-0.6]\'','\'(2.48-2.79]\'','\'(0.9-1.2]\'','\'(31.2-34.4]\'',40,'\'(104.048-107.501]\'',100,band
19910109,x266,tvguide,25503,yes,key,yes,benton,gallatin,uncoated,uncoated,no,line,yes,motter94,821,'\'(1.9-2.8]\'',tabloid,northus,?,'\'(53.5-58.25]\'',46,0.3,'\'(13.86-15.19]\'',80,'\'(0.653125-0.7725]\'',20,'\'(3.58-7.16]\'',1900,'\'(51.77-55.36]\'','\'(37.7-40.84]\'','\'(-inf-1.6]\'','\'(-inf-0.6]\'','\'(2.48-2.79]\'','\'(0.6-0.9]\'','\'(31.2-34.4]\'',40,'\'(104.048-107.501]\'',100,noband
19910104,b7,modmat,47201,yes,key,yes,benton,gallatin,uncoated,coated,no,line,yes,woodhoe70,815,'\'(8.2-9.1]\'',catalog,northus,?,'\'(58.25-63]\'',40,0.433,'\'(15.19-16.52]\'',80,?,30,'\'(3.58-7.16]\'',1850,'\'(51.77-55.36]\'','\'(37.7-40.84]\'','\'(-inf-1.6]\'','\'(-inf-0.6]\'','\'(2.79-inf)\'','\'(0.9-1.2]\'','\'(37.6-40.8]\'',40,'\'(100.595-104.048]\'',100,noband
19910104,t133,massey,39039,yes,key,yes,benton,gallatin,uncoated,uncoated,no,line,yes,woodhoe70,816,'\'(8.2-9.1]\'',catalog,northus,1910,'\'(48.75-53.5]\'',40,0.3,'\'(15.19-16.52]\'',75,'\'(0.295-0.414375]\'',30,'\'(3.58-7.16]\'',1467,'\'(55.36-58.95]\'','\'(37.7-40.84]\'','\'(-inf-1.6]\'','\'(-inf-0.6]\'','\'(2.48-2.79]\'','\'(1.2-1.5]\'','\'(37.6-40.8]\'',40,'\'(107.501-110.954]\'',100,noband
19910111,j34,kmart,37351,no,key,yes,benton,gallatin,uncoated,coated,no,line,yes,woodhoe70,816,'\'(1.9-2.8]\'',tabloid,?,1910,'\'(48.75-53.5]\'',46,0.3,'\'(16.52-17.85]\'',80,'\'(0.653125-0.7725]\'',30,'\'(-inf-3.58]\'',2100,'\'(55.36-58.95]\'','\'(40.84-43.98]\'','\'(4.8-6.4]\'','\'(-inf-0.6]\'','\'(2.17-2.48]\'','\'(0.3-0.6]\'','\'(34.4-37.6]\'',40,'\'(104.048-107.501]\'',100,noband
19910104,t218,massey,38039,yes,key,yes,benton,gallatin,uncoated,uncoated,no,line,yes,woodhoe70,816,'\'(1.9-2.8]\'',catalog,northus,1910,'\'(48.75-53.5]\'',40,0.267,'\'(16.52-17.85]\'',76,'\'(0.414375-0.53375]\'',28,'\'(7.16-10.74]\'',1467,'\'(51.77-55.36]\'','\'(34.56-37.7]\'','\'(4.8-6.4]\'','\'(-inf-0.6]\'','\'(2.48-2.79]\'','\'(0.6-0.9]\'','\'(37.6-40.8]\'',40,'\'(100.595-104.048]\'',100,noband
19910111,x249,roses,35751,no,key,yes,benton,gallatin,coated,coated,no,line,yes,motter94,827,'\'(1.9-2.8]\'',tabloid,canadian,1911,'\'(48.75-53.5]\'',46,0.3,'\'(15.19-16.52]\'',75,'\'(0.653125-0.7725]\'',30,'\'(-inf-3.58]\'',2600,'\'(58.95-62.54]\'','\'(34.56-37.7]\'','\'(4.8-6.4]\'','\'(-inf-0.6]\'','\'(2.48-2.79]\'','\'(0.3-0.6]\'','\'(-inf-31.2]\'',40,'\'(104.048-107.501]\'',100,noband
19910111,x788,roses,35751,no,key,yes,benton,gallatin,coated,coated,no,line,yes,motter94,827,'\'(8.2-9.1]\'',tabloid,canadian,1911,'\'(48.75-53.5]\'',46,0.2,'\'(15.19-16.52]\'',75,'\'(0.653125-0.7725]\'',28,'\'(-inf-3.58]\'',2600,'\'(58.95-62.54]\'','\'(34.56-37.7]\'','\'(4.8-6.4]\'','\'(-inf-0.6]\'','\'(2.48-2.79]\'','\'(0.9-1.2]\'','\'(-inf-31.2]\'',40,'\'(104.048-107.501]\'',100,noband
19910112,m372,modmat,47201,yes,key,yes,benton,gallatin,uncoated,uncoated,no,xylol,yes,albert70,802,'\'(6.4-7.3]\'',catalog,northus,1910,'\'(48.75-53.5]\'',45,0.367,'\'(-inf-12.53]\'',70,'\'(0.653125-0.7725]\'',60,'\'(-inf-3.58]\'',1650,'\'(58.95-62.54]\'','\'(37.7-40.84]\'','\'(-inf-1.6]\'','\'(-inf-0.6]\'','\'(2.79-inf)\'','\'(0.9-1.2]\'','\'(37.6-40.8]\'',40,'\'(100.595-104.048]\'',100,band
19910114,i320,childcraft,37000,yes,key,yes,benton,gallatin,uncoated,uncoated,no,line,yes,woodhoe70,815,'\'(1.9-2.8]\'',catalog,northus,1911,'\'(63-67.75]\'',43,0.333,'\'(15.19-16.52]\'',75,'\'(0.891875-1.01125]\'',32,'\'(21.48-25.06]\'',1750,'\'(44.59-48.18]\'','\'(31.42-34.56]\'','\'(-inf-1.6]\'','\'(-inf-0.6]\'','\'(2.79-inf)\'','\'(0.9-1.2]\'','\'(37.6-40.8]\'',40,'\'(104.048-107.501]\'',100,noband
19910114,i337,childcraft,37000,yes,key,yes,benton,gallatin,uncoated,uncoated,no,line,yes,woodhoe70,815,'\'(8.2-9.1]\'',catalog,northus,1910,'\'(63-67.75]\'',43,0.2,'\'(15.19-16.52]\'',68,'\'(0.653125-0.7725]\'',30,'\'(14.32-17.9]\'',1750,'\'(48.18-51.77]\'','\'(34.56-37.7]\'','\'(-inf-1.6]\'','\'(-inf-0.6]\'','\'(2.79-inf)\'','\'(0.9-1.2]\'','\'(37.6-40.8]\'',40,'\'(104.048-107.501]\'',100,noband
19910111,x352,hanovrhouse,35539,yes,key,yes,benton,gallatin,uncoated,uncoated,no,line,yes,motter94,821,'\'(1.9-2.8]\'',tabloid,northus,1911,'\'(48.75-53.5]\'',50,0.367,'\'(13.86-15.19]\'',80,'\'(0.653125-0.7725]\'',40,'\'(7.16-10.74]\'',1700,'\'(51.77-55.36]\'','\'(34.56-37.7]\'','\'(-inf-1.6]\'','\'(-inf-0.6]\'','\'(2.48-2.79]\'','\'(0.9-1.2]\'','\'(37.6-40.8]\'',40,'\'(104.048-107.501]\'',100,band
19910117,x67,hanovrhous,35539,yes,key,yes,benton,gallatin,uncoated,uncoated,no,line,yes,motter94,821,'\'(6.4-7.3]\'',tabloid,northus,1911,'\'(48.75-53.5]\'',50,0.3,'\'(13.86-15.19]\'',70,'\'(0.891875-1.01125]\'',30,'\'(7.16-10.74]\'',1600,'\'(48.18-51.77]\'','\'(37.7-40.84]\'','\'(-inf-1.6]\'','\'(-inf-0.6]\'','\'(2.79-inf)\'','\'(0.9-1.2]\'','\'(37.6-40.8]\'',40,'\'(104.048-107.501]\'',100,band
19910125,x817,guideposts,23052,yes,key,yes,benton,gallatin,uncoated,uncoated,no,line,yes,motter94,821,'\'(6.4-7.3]\'',tabloid,northus,1911,'\'(39.25-44]\'',45,0.3,'\'(13.86-15.19]\'',70,'\'(0.53375-0.653125]\'',25,'\'(-inf-3.58]\'',1500,'\'(58.95-62.54]\'','\'(37.7-40.84]\'','\'(-inf-1.6]\'','\'(-inf-0.6]\'','\'(1.86-2.17]\'','\'(0.9-1.2]\'','\'(37.6-40.8]\'',40,'\'(97.142-100.595]\'',100,band
19910117,x273,hanovrhous,35539,yes,key,yes,benton,gallatin,uncoated,uncoated,no,line,yes,motter94,821,'\'(1.9-2.8]\'',tabloid,northus,1911,'\'(48.75-53.5]\'',43,0.267,'\'(15.19-16.52]\'',75,'\'(0.891875-1.01125]\'',20,'\'(14.32-17.9]\'',1600,'\'(48.18-51.77]\'','\'(34.56-37.7]\'','\'(-inf-1.6]\'','\'(-inf-0.6]\'','\'(2.48-2.79]\'','\'(0.9-1.2]\'','\'(37.6-40.8]\'',40,'\'(100.595-104.048]\'',100,noband
19910103,f108,modmat,47201,?,key,yes,benton,gallatin,coated,coated,no,line,no,motter70,813,'\'(8.2-9.1]\'',catalog,northus,1911,?,45,0.233,'\'(13.86-15.19]\'',87,'\'(0.891875-1.01125]\'',?,'\'(-inf-3.58]\'',1400,'\'(58.95-62.54]\'','\'(34.56-37.7]\'','\'(-inf-1.6]\'','\'(-inf-0.6]\'','\'(2.48-2.79]\'','\'(0.9-1.2]\'','\'(37.6-40.8]\'',40,'\'(100.595-104.048]\'',100,band
19910129,f237,homeshop,38064,no,key,yes,benton,gallatin,coated,coated,no,line,no,motter70,813,'\'(4.6-5.5]\'',catalog,canadian,1911,'\'(29.75-34.5]\'',45,0.2,'\'(13.86-15.19]\'',65,?,?,'\'(-inf-3.58]\'',1600,'\'(58.95-62.54]\'','\'(34.56-37.7]\'','\'(-inf-1.6]\'','\'(-inf-0.6]\'','\'(2.48-2.79]\'','\'(0.6-0.9]\'','\'(31.2-34.4]\'',40,'\'(97.142-100.595]\'',100,noband
19910129,f267,homeshop,38064,no,key,yes,benton,gallatin,coated,coated,no,line,no,motter70,813,'\'(-inf-1.9]\'',catalog,canadian,1911,'\'(29.75-34.5]\'',45,0.2,'\'(15.19-16.52]\'',65,?,?,'\'(3.58-7.16]\'',1600,'\'(55.36-58.95]\'','\'(34.56-37.7]\'','\'(-inf-1.6]\'','\'(-inf-0.6]\'','\'(2.48-2.79]\'','\'(1.8-2.1]\'','\'(31.2-34.4]\'',40,'\'(97.142-100.595]\'',100,noband
19910123,s21,uscav,35521,yes,key,yes,benton,gallatin,uncoated,uncoated,no,line,yes,motter70,813,'\'(4.6-5.5]\'',catalog,canadian,1910,'\'(58.25-63]\'',38,0.267,'\'(15.19-16.52]\'',64,'\'(0.653125-0.7725]\'',?,'\'(10.74-14.32]\'',1400,'\'(51.77-55.36]\'','\'(31.42-34.56]\'','\'(-inf-1.6]\'','\'(-inf-0.6]\'','\'(2.48-2.79]\'','\'(0.9-1.2]\'','\'(31.2-34.4]\'',40,'\'(100.595-104.048]\'',100,noband
19910123,f492,uscav,35521,yes,key,yes,benton,gallatin,uncoated,uncoated,no,line,yes,motter70,813,'\'(-inf-1.9]\'',catalog,canadian,1911,'\'(58.25-63]\'',38,0.333,'\'(15.19-16.52]\'',66,'\'(0.653125-0.7725]\'',?,'\'(3.58-7.16]\'',1400,'\'(55.36-58.95]\'','\'(34.56-37.7]\'','\'(-inf-1.6]\'','\'(-inf-0.6]\'','\'(0.93-1.24]\'','\'(1.2-1.5]\'','\'(31.2-34.4]\'',40,'\'(100.595-104.048]\'',100,noband
19910130,x799,colortil,37571,no,key,yes,benton,gallatin,coated,coated,no,naptha,no,motter94,824,'\'(1.9-2.8]\'',tabloid,canadian,1911,'\'(48.75-53.5]\'',45,0.233,'\'(15.19-16.52]\'',70,'\'(0.7725-0.891875]\'',30,'\'(-inf-3.58]\'',2400,'\'(55.36-58.95]\'','\'(40.84-43.98]\'','\'(-inf-1.6]\'','\'(-inf-0.6]\'','\'(1.55-1.86]\'','\'(0.9-1.2]\'','\'(-inf-31.2]\'',40,'\'(104.048-107.501]\'',100,noband
19910130,x823,colortil,35751,no,key,yes,benton,gallatin,coated,coated,no,naptha,yes,motter94,824,'\'(8.2-9.1]\'',tabloid,canadian,1911,'\'(39.25-44]\'',45,0.2,'\'(13.86-15.19]\'',76,'\'(0.7725-0.891875]\'',30,'\'(-inf-3.58]\'',2400,'\'(58.95-62.54]\'','\'(34.56-37.7]\'','\'(-inf-1.6]\'','\'(-inf-0.6]\'','\'(0.93-1.24]\'','\'(0.9-1.2]\'','\'(-inf-31.2]\'',40,'\'(104.048-107.501]\'',100,noband
19910117,x163,wards,37340,no,key,yes,benton,gallatin,coated,coated,no,line,yes,motter94,824,'\'(1.9-2.8]\'',tabloid,canadian,1911,'\'(29.75-34.5]\'',43,0.2,'\'(15.19-16.52]\'',70,'\'(0.7725-0.891875]\'',25,'\'(-inf-3.58]\'',2200,'\'(55.36-58.95]\'','\'(37.7-40.84]\'','\'(3.2-4.8]\'','\'(-inf-0.6]\'','\'(1.86-2.17]\'','\'(0.9-1.2]\'','\'(-inf-31.2]\'',40,'\'(93.689-97.142]\'',100,noband
19910127,o4,target,35816,no,key,yes,benton,gallatin,coated,coated,no,line,yes,motter94,827,'\'(1.9-2.8]\'',spiegel,canadian,1911,'\'(39.25-44]\'',41,0.2,'\'(15.19-16.52]\'',72,'\'(0.891875-1.01125]\'',30,'\'(-inf-3.58]\'',2000,'\'(58.95-62.54]\'','\'(34.56-37.7]\'','\'(-inf-1.6]\'','\'(-inf-0.6]\'','\'(2.48-2.79]\'','\'(0.9-1.2]\'','\'(-inf-31.2]\'',40,'\'(104.048-107.501]\'',100,band
19910131,e84,kmart,37352,no,key,yes,benton,gallatin,coated,coated,no,line,yes,motter94,827,'\'(8.2-9.1]\'',tabloid,scandanavian,1911,'\'(39.25-44]\'',42,0.2,'\'(13.86-15.19]\'',74,'\'(0.891875-1.01125]\'',25,'\'(7.16-10.74]\'',2100,'\'(55.36-58.95]\'','\'(31.42-34.56]\'','\'(-inf-1.6]\'','\'(-inf-0.6]\'','\'(2.17-2.48]\'','\'(0.6-0.9]\'','\'(34.4-37.6]\'',40,'\'(104.048-107.501]\'',100,band
19910201,e81,kmart,37352,no,key,yes,benton,gallatin,coated,coated,no,line,yes,motter94,827,'\'(8.2-9.1]\'',tabloid,scandanavian,1911,'\'(44-48.75]\'',42,0.2,'\'(13.86-15.19]\'',70,'\'(0.891875-1.01125]\'',20,'\'(7.16-10.74]\'',1850,'\'(55.36-58.95]\'','\'(31.42-34.56]\'','\'(-inf-1.6]\'','\'(-inf-0.6]\'','\'(1.86-2.17]\'','\'(0.6-0.9]\'','\'(34.4-37.6]\'',40,'\'(104.048-107.501]\'',100,band
19910130,e72,kmart,37352,no,key,yes,benton,gallatin,uncoated,coated,no,line,yes,motter94,827,'\'(8.2-9.1]\'',tabloid,scandanavian,1911,'\'(48.75-53.5]\'',45,0.3,'\'(13.86-15.19]\'',76,'\'(0.891875-1.01125]\'',30,'\'(7.16-10.74]\'',2150,'\'(55.36-58.95]\'','\'(31.42-34.56]\'','\'(-inf-1.6]\'','\'(-inf-0.6]\'','\'(2.48-2.79]\'','\'(0.9-1.2]\'','\'(34.4-37.6]\'',40,'\'(104.048-107.501]\'',100,noband
19910130,e310,kmart,37352,no,key,yes,benton,gallatin,uncoated,coated,no,line,yes,motter94,827,'\'(1.9-2.8]\'',tabloid,scandanavian,1911,'\'(48.75-53.5]\'',45,0.3,'\'(15.19-16.52]\'',72,'\'(0.891875-1.01125]\'',25,'\'(3.58-7.16]\'',2150,'\'(55.36-58.95]\'','\'(34.56-37.7]\'','\'(-inf-1.6]\'','\'(-inf-0.6]\'','\'(2.48-2.79]\'','\'(0.9-1.2]\'','\'(34.4-37.6]\'',40,'\'(104.048-107.501]\'',100,noband
19910201,x29,woolworth,37080,no,key,yes,benton,gallatin,coated,coated,no,line,no,motter94,828,'\'(1.9-2.8]\'',tabloid,canadian,1911,'\'(34.5-39.25]\'',42,?,'\'(13.86-15.19]\'',75,'\'(0.653125-0.7725]\'',30,'\'(-inf-3.58]\'',2100,'\'(55.36-58.95]\'','\'(40.84-43.98]\'','\'(-inf-1.6]\'','\'(-inf-0.6]\'','\'(1.86-2.17]\'','\'(0.6-0.9]\'','\'(-inf-31.2]\'',40,'\'(104.048-107.501]\'',100,band
19910118,x292,ames,37157,no,key,yes,benton,gallatin,coated,coated,no,line,no,motter94,828,'\'(1.9-2.8]\'',tabloid,canadian,1910,'\'(29.75-34.5]\'',45,0.233,'\'(16.52-17.85]\'',70,'\'(0.653125-0.7725]\'',35,'\'(-inf-3.58]\'',2200,'\'(55.36-58.95]\'','\'(40.84-43.98]\'','\'(-inf-1.6]\'','\'(-inf-0.6]\'','\'(2.48-2.79]\'','\'(0.9-1.2]\'','\'(31.2-34.4]\'',40,'\'(104.048-107.501]\'',100,band
19910206,j9,kmart,37352,no,key,yes,benton,gallatin,uncoated,coated,no,line,yes,woodhoe70,815,'\'(1.9-2.8]\'',tabloid,northus,1911,'\'(34.5-39.25]\'',44,0.2,'\'(15.19-16.52]\'',90,'\'(0.653125-0.7725]\'',28,'\'(17.9-21.48]\'',2050,'\'(44.59-48.18]\'','\'(34.56-37.7]\'','\'(-inf-1.6]\'','\'(-inf-0.6]\'','\'(2.17-2.48]\'','\'(0.6-0.9]\'','\'(34.4-37.6]\'',40,'\'(104.048-107.501]\'',100,noband
19910206,j582,kmart,37352,no,key,yes,benton,gallatin,uncoated,coated,no,line,yes,woodhoe70,815,'\'(8.2-9.1]\'',tabloid,northus,1911,'\'(34.5-39.25]\'',44,0.2,'\'(15.19-16.52]\'',91,'\'(0.653125-0.7725]\'',30,'\'(21.48-25.06]\'',2050,'\'(-inf-44.59]\'','\'(34.56-37.7]\'','\'(-inf-1.6]\'','\'(-inf-0.6]\'','\'(2.48-2.79]\'','\'(0.6-0.9]\'','\'(34.4-37.6]\'',40,'\'(104.048-107.501]\'',100,noband
19910206,x141,tvguide,25507,yes,key,yes,benton,gallatin,uncoated,uncoated,no,line,yes,motter94,821,'\'(1.9-2.8]\'',tabloid,?,1911,'\'(44-48.75]\'',44,0.267,'\'(13.86-15.19]\'',78,'\'(0.53375-0.653125]\'',22,'\'(7.16-10.74]\'',1510,'\'(51.77-55.36]\'','\'(37.7-40.84]\'','\'(-inf-1.6]\'','\'(-inf-0.6]\'','\'(2.48-2.79]\'','\'(0.6-0.9]\'','\'(31.2-34.4]\'',40,'\'(110.954-114.407]\'',100,noband
19910206,x818,tvguide,25507,yes,key,yes,benton,gallatin,uncoated,uncoated,no,line,yes,motter94,821,'\'(6.4-7.3]\'',tabloid,?,1910,'\'(39.25-44]\'',44,0.2,'\'(13.86-15.19]\'',69,'\'(0.53375-0.653125]\'',20,'\'(7.16-10.74]\'',1510,'\'(51.77-55.36]\'','\'(37.7-40.84]\'','\'(1.6-3.2]\'','\'(-inf-0.6]\'','\'(2.48-2.79]\'','\'(0.9-1.2]\'','\'(31.2-34.4]\'',40,'\'(107.501-110.954]\'',100,noband
19910208,v376,woolwrth,37080,no,key,yes,benton,gallatin,coated,coated,no,line,no,motter94,828,'\'(1.9-2.8]\'',tabloid,?,1911,'\'(39.25-44]\'',47,0.333,'\'(16.52-17.85]\'',78,'\'(0.653125-0.7725]\'',35,'\'(-inf-3.58]\'',2400,'\'(55.36-58.95]\'','\'(40.84-43.98]\'','\'(3.2-4.8]\'','\'(-inf-0.6]\'','\'(2.48-2.79]\'','\'(0.9-1.2]\'','\'(-inf-31.2]\'',40,'\'(97.142-100.595]\'',100,band
19910211,m254,abbypress,27490,no,key,yes,benton,gallatin,coated,coated,no,line,yes,motter70,813,'\'(-inf-1.9]\'',catalog,?,1911,'\'(29.75-34.5]\'',42,0.2,'\'(15.19-16.52]\'',64,'\'(0.7725-0.891875]\'',?,'\'(-inf-3.58]\'',1425,'\'(62.54-66.13]\'','\'(34.56-37.7]\'','\'(-inf-1.6]\'','\'(-inf-0.6]\'','\'(0.93-1.24]\'','\'(1.2-1.5]\'','\'(31.2-34.4]\'',40,'\'(104.048-107.501]\'',100,noband
19910215,r5,target,35811,no,key,yes,benton,gallatin,coated,coated,no,line,yes,woodhoe70,815,'\'(1.9-2.8]\'',spiegel,canadian,1910,'\'(44-48.75]\'',38,?,'\'(13.86-15.19]\'',80,'\'(0.53375-0.653125]\'',30,'\'(3.58-7.16]\'',1600,'\'(55.36-58.95]\'','\'(34.56-37.7]\'','\'(-inf-1.6]\'','\'(-inf-0.6]\'','\'(2.48-2.79]\'','\'(1.2-1.5]\'','\'(-inf-31.2]\'',40,'\'(100.595-104.048]\'',100,band
19910113,j33,belks,35334,yes,key,yes,benton,gallatin,uncoated,uncoated,no,line,yes,woodhoe70,816,'\'(1.9-2.8]\'',tabloid,?,1911,'\'(39.25-44]\'',43,0.267,'\'(15.19-16.52]\'',96,'\'(0.891875-1.01125]\'',28,'\'(-inf-3.58]\'',1500,'\'(55.36-58.95]\'','\'(40.84-43.98]\'','\'(1.6-3.2]\'','\'(-inf-0.6]\'','\'(2.79-inf)\'','\'(0.6-0.9]\'','\'(37.6-40.8]\'',40,'\'(100.595-104.048]\'',100,noband
19910213,j43,belks,35334,yes,key,yes,benton,gallatin,uncoated,uncoated,no,line,yes,woodhoe70,816,'\'(8.2-9.1]\'',tabloid,northus,1911,'\'(29.75-34.5]\'',43,0.2,'\'(13.86-15.19]\'',82,'\'(0.891875-1.01125]\'',31,'\'(7.16-10.74]\'',1500,'\'(51.77-55.36]\'','\'(37.7-40.84]\'','\'(3.2-4.8]\'','\'(-inf-0.6]\'','\'(2.48-2.79]\'','\'(0.9-1.2]\'','\'(37.6-40.8]\'',40,'\'(100.595-104.048]\'',100,noband
19910212,i357,sears,37869,no,key,yes,benton,gallatin,uncoated,coated,no,line,yes,woodhoe70,815,'\'(8.2-9.1]\'',catalog,northus,1911,'\'(34.5-39.25]\'',44,0.3,'\'(13.86-15.19]\'',85,'\'(0.653125-0.7725]\'',34,'\'(-inf-3.58]\'',1400,'\'(58.95-62.54]\'','\'(34.56-37.7]\'','\'(-inf-1.6]\'','\'(-inf-0.6]\'','\'(2.79-inf)\'','\'(0.9-1.2]\'','\'(-inf-31.2]\'',40,'\'(100.595-104.048]\'',100,noband
19910212,i353,sears,37869,no,key,yes,benton,gallatin,uncoated,coated,no,line,yes,woodhoe70,815,'\'(1.9-2.8]\'',catalog,northus,1910,'\'(34.5-39.25]\'',44,0.3,'\'(15.19-16.52]\'',80,'\'(0.891875-1.01125]\'',32,'\'(3.58-7.16]\'',1400,'\'(55.36-58.95]\'','\'(34.56-37.7]\'','\'(-inf-1.6]\'','\'(-inf-0.6]\'','\'(2.79-inf)\'','\'(0.9-1.2]\'','\'(-inf-31.2]\'',40,'\'(100.595-104.048]\'',100,noband
19910211,m254,abbypress,27490,no,key,yes,benton,gallatin,coated,coated,no,line,yes,motter70,813,'\'(-inf-1.9]\'',catalog,northus,1911,'\'(29.75-34.5]\'',42,0.2,'\'(15.19-16.52]\'',64,'\'(0.7725-0.891875]\'',?,'\'(-inf-3.58]\'',1425,'\'(58.95-62.54]\'','\'(37.7-40.84]\'','\'(-inf-1.6]\'','\'(-inf-0.6]\'','\'(0.93-1.24]\'','\'(1.2-1.5]\'','\'(31.2-34.4]\'',40,'\'(104.048-107.501]\'',100,noband
19910214,x291,roses,35752,no,key,yes,benton,gallatin,coated,coated,no,line,yes,motter94,824,'\'(8.2-9.1]\'',tabloid,canadian,1910,'\'(48.75-53.5]\'',43,0.2,'\'(15.19-16.52]\'',82,'\'(0.7725-0.891875]\'',30,'\'(-inf-3.58]\'',2270,'\'(55.36-58.95]\'','\'(43.98-47.12]\'','\'(11.2-12.8]\'','\'(-inf-0.6]\'','\'(1.86-2.17]\'','\'(0.9-1.2]\'','\'(-inf-31.2]\'',40,'\'(100.595-104.048]\'',100,noband
19910214,x129,roses,35752,no,key,yes,benton,gallatin,coated,coated,no,line,yes,motter94,824,'\'(1.9-2.8]\'',tabloid,canadian,1910,'\'(48.75-53.5]\'',43,0.3,'\'(15.19-16.52]\'',80,'\'(0.7725-0.891875]\'',30,'\'(-inf-3.58]\'',2270,'\'(55.36-58.95]\'','\'(43.98-47.12]\'','\'(11.2-12.8]\'','\'(-inf-0.6]\'','\'(1.24-1.55]\'','\'(1.2-1.5]\'','\'(-inf-31.2]\'',40,'\'(100.595-104.048]\'',100,noband
19910214,x297,jcpenny,35794,no,key,yes,benton,gallatin,uncoated,coated,no,line,yes,motter94,827,'\'(1.9-2.8]\'',tabloid,northus,1911,'\'(58.25-63]\'',43,0.267,'\'(15.19-16.52]\'',57,'\'(0.653125-0.7725]\'',24,'\'(-inf-3.58]\'',1480,'\'(55.36-58.95]\'','\'(37.7-40.84]\'','\'(-inf-1.6]\'','\'(-inf-0.6]\'','\'(1.24-1.55]\'','\'(1.5-1.8]\'','\'(31.2-34.4]\'',40,'\'(100.595-104.048]\'',100,noband
19910214,x146,jcpenny,35794,no,key,yes,benton,gallatin,uncoated,coated,no,line,yes,motter94,827,'\'(8.2-9.1]\'',tabloid,northus,1911,'\'(48.75-53.5]\'',43,0.233,'\'(16.52-17.85]\'',58,'\'(0.653125-0.7725]\'',20,'\'(7.16-10.74]\'',1480,'\'(55.36-58.95]\'','\'(34.56-37.7]\'','\'(-inf-1.6]\'','\'(-inf-0.6]\'','\'(1.55-1.86]\'','\'(0.6-0.9]\'','\'(31.2-34.4]\'',40,'\'(100.595-104.048]\'',100,noband
19910213,x129,roses,35752,no,key,yes,benton,gallatin,coated,coated,no,line,yes,motter94,824,'\'(1.9-2.8]\'',tabloid,?,1910,'\'(48.75-53.5]\'',43,0.3,'\'(16.52-17.85]\'',87,'\'(0.7725-0.891875]\'',35,'\'(-inf-3.58]\'',2300,'\'(55.36-58.95]\'','\'(40.84-43.98]\'','\'(-inf-1.6]\'','\'(-inf-0.6]\'','\'(1.24-1.55]\'','\'(0.6-0.9]\'','\'(-inf-31.2]\'',40,'\'(100.595-104.048]\'',100,noband
19910215,e303,cenpurch,37441,no,key,yes,benton,gallatin,coated,coated,no,line,yes,motter94,821,'\'(1.9-2.8]\'',tabloid,canadian,1911,'\'(-inf-29.75]\'',38,0.2,'\'(12.53-13.86]\'',75,'\'(0.53375-0.653125]\'',25,'\'(-inf-3.58]\'',1600,'\'(55.36-58.95]\'','\'(40.84-43.98]\'','\'(-inf-1.6]\'','\'(-inf-0.6]\'','\'(2.48-2.79]\'','\'(0.6-0.9]\'','\'(-inf-31.2]\'',40,'\'(100.595-104.048]\'',100,noband
19910215,e68,cenpurch,37441,no,key,yes,benton,gallatin,coated,coated,no,line,yes,motter94,821,'\'(6.4-7.3]\'',tabloid,canadian,1911,'\'(-inf-29.75]\'',38,0.233,'\'(13.86-15.19]\'',70,'\'(0.53375-0.653125]\'',25,'\'(-inf-3.58]\'',1600,'\'(55.36-58.95]\'','\'(40.84-43.98]\'','\'(4.8-6.4]\'','\'(-inf-0.6]\'','\'(1.55-1.86]\'','\'(0.9-1.2]\'','\'(-inf-31.2]\'',40,'\'(100.595-104.048]\'',100,noband
19910221,j42,kmart,37354,no,key,yes,benton,gallatin,uncoated,uncoated,no,line,yes,woodhoe70,816,'\'(8.2-9.1]\'',tabloid,scandanavian,1911,'\'(39.25-44]\'',46,0.333,'\'(15.19-16.52]\'',78,'\'(0.414375-0.53375]\'',34,'\'(-inf-3.58]\'',2000,'\'(58.95-62.54]\'','\'(34.56-37.7]\'','\'(-inf-1.6]\'','\'(-inf-0.6]\'','\'(2.17-2.48]\'','\'(1.2-1.5]\'','\'(34.4-37.6]\'',40,'\'(100.595-104.048]\'',100,noband
19910223,x53,belk,35335,yes,key,yes,benton,gallatin,uncoated,uncoated,no,line,yes,motter94,827,'\'(1.9-2.8]\'',tabloid,northus,1911,'\'(44-48.75]\'',41,0.333,'\'(16.52-17.85]\'',78,'\'(0.653125-0.7725]\'',16,'\'(10.74-14.32]\'',1100,'\'(48.18-51.77]\'','\'(34.56-37.7]\'','\'(-inf-1.6]\'','\'(-inf-0.6]\'','\'(2.48-2.79]\'','\'(0.9-1.2]\'','\'(47.2-50.4]\'',40,'\'(93.689-97.142]\'',100,band
19910223,x821,belk,37335,yes,key,yes,benton,gallatin,uncoated,uncoated,no,line,yes,motter94,827,'\'(1.9-2.8]\'',tabloid,northus,1911,'\'(44-48.75]\'',41,0.233,'\'(15.19-16.52]\'',72,'\'(0.653125-0.7725]\'',20,'\'(10.74-14.32]\'',1300,'\'(48.18-51.77]\'','\'(34.56-37.7]\'','\'(3.2-4.8]\'','\'(-inf-0.6]\'','\'(2.48-2.79]\'','\'(0.9-1.2]\'','\'(47.2-50.4]\'',40,'\'(93.689-97.142]\'',100,band
19910220,x118,toysrus,35870,no,key,no,benton,gallatin,coated,coated,no,line,no,motter94,824,'\'(1.9-2.8]\'',tabloid,canadian,1910,'\'(39.25-44]\'',46,0.2,'\'(13.86-15.19]\'',68,'\'(0.653125-0.7725]\'',28,'\'(-inf-3.58]\'',1700,'\'(55.36-58.95]\'','\'(40.84-43.98]\'','\'(-inf-1.6]\'','\'(-inf-0.6]\'','\'(0.93-1.24]\'','\'(0.9-1.2]\'','\'(31.2-34.4]\'',40,'\'(100.595-104.048]\'',100,noband
19910220,x826,toysrus,35870,no,key,no,benton,gallatin,coated,coated,no,line,no,motter94,824,'\'(8.2-9.1]\'',tabloid,canadian,1911,'\'(39.25-44]\'',46,0.267,'\'(15.19-16.52]\'',68,'\'(0.7725-0.891875]\'',25,'\'(-inf-3.58]\'',1700,'\'(55.36-58.95]\'','\'(40.84-43.98]\'','\'(-inf-1.6]\'','\'(-inf-0.6]\'','\'(0.93-1.24]\'','\'(0.9-1.2]\'','\'(31.2-34.4]\'',40,'\'(100.595-104.048]\'',100,noband
19910216,r23,target,35811,no,key,yes,benton,gallatin,coated,coated,no,line,yes,woodhoe70,815,'\'(8.2-9.1]\'',spiegel,canadian,1911,'\'(39.25-44]\'',35,0.233,'\'(17.85-19.18]\'',85,'\'(0.53375-0.653125]\'',30,'\'(-inf-3.58]\'',2000,'\'(58.95-62.54]\'','\'(34.56-37.7]\'','\'(-inf-1.6]\'','\'(-inf-0.6]\'','\'(2.48-2.79]\'','\'(0.9-1.2]\'','\'(-inf-31.2]\'',40,'\'(100.595-104.048]\'',100,noband
19910213,x291,roses,35752,no,key,yes,benton,gallatin,coated,coated,no,line,yes,motter94,824,'\'(8.2-9.1]\'',tabloid,canadian,1910,'\'(48.75-53.5]\'',43,0.2,'\'(16.52-17.85]\'',84,?,35,'\'(-inf-3.58]\'',2300,'\'(55.36-58.95]\'','\'(43.98-47.12]\'','\'(-inf-1.6]\'','\'(-inf-0.6]\'','\'(1.86-2.17]\'','\'(0.6-0.9]\'','\'(-inf-31.2]\'',40,'\'(100.595-104.048]\'',100,noband
19910215,i354,sears,37869,no,key,yes,benton,gallatin,uncoated,coated,no,line,yes,albert70,802,'\'(6.4-7.3]\'',catalog,northus,1911,'\'(34.5-39.25]\'',38,0.4,'\'(-inf-12.53]\'',62,'\'(0.653125-0.7725]\'',46,'\'(3.58-7.16]\'',1400,'\'(55.36-58.95]\'','\'(34.56-37.7]\'','\'(-inf-1.6]\'','\'(-inf-0.6]\'','\'(1.86-2.17]\'','\'(0.9-1.2]\'','\'(-inf-31.2]\'',40,'\'(100.595-104.048]\'',100,noband
19910215,i358,sears,37869,no,key,yes,benton,gallatin,uncoated,coated,no,line,yes,albert70,802,'\'(1.9-2.8]\'',catalog,northus,1911,'\'(34.5-39.25]\'',38,0.433,'\'(15.19-16.52]\'',70,'\'(0.653125-0.7725]\'',50,'\'(-inf-3.58]\'',1400,'\'(58.95-62.54]\'','\'(34.56-37.7]\'','\'(-inf-1.6]\'','\'(-inf-0.6]\'','\'(2.79-inf)\'','\'(1.2-1.5]\'','\'(-inf-31.2]\'',40,'\'(100.595-104.048]\'',100,noband
19910220,x760,tvguide,25509,yes,key,yes,benton,gallatin,uncoated,uncoated,no,line,yes,motter94,821,'\'(6.4-7.3]\'',tabloid,northus,1911,'\'(48.75-53.5]\'',46,0.2,'\'(13.86-15.19]\'',60,'\'(0.53375-0.653125]\'',25,'\'(7.16-10.74]\'',1750,'\'(51.77-55.36]\'','\'(34.56-37.7]\'','\'(1.6-3.2]\'','\'(-inf-0.6]\'','\'(2.17-2.48]\'','\'(0.6-0.9]\'','\'(-inf-31.2]\'',40,'\'(93.689-97.142]\'',100,band
19910304,e26,kmart,37386,yes,key,yes,benton,gallatin,uncoated,uncoated,no,line,yes,motter94,827,'\'(1.9-2.8]\'',tabloid,southus,1910,'\'(39.25-44]\'',47,0.333,'\'(23.17-inf)\'',78,'\'(0.7725-0.891875]\'',30,'\'(7.16-10.74]\'',2100,'\'(51.77-55.36]\'','\'(34.56-37.7]\'','\'(14.4-inf)\'','\'(-inf-0.6]\'','\'(2.17-2.48]\'','\'(0.9-1.2]\'','\'(37.6-40.8]\'',40,'\'(97.142-100.595]\'',100,band
19910303,e84,kmart,37386,yes,key,yes,benton,gallatin,uncoated,uncoated,no,line,no,motter94,827,'\'(8.2-9.1]\'',tabloid,southus,?,'\'(39.25-44]\'',47,0.35,'\'(13.86-15.19]\'',76,'\'(0.653125-0.7725]\'',16,'\'(7.16-10.74]\'',2000,'\'(48.18-51.77]\'','\'(40.84-43.98]\'','\'(-inf-1.6]\'','\'(-inf-0.6]\'','\'(2.48-2.79]\'','\'(1.2-1.5]\'','\'(37.6-40.8]\'',40,'\'(97.142-100.595]\'',100,band
19910301,e69,kmart,37386,yes,key,yes,benton,gallatin,uncoated,uncoated,no,line,yes,motter94,827,'\'(1.9-2.8]\'',tabloid,southus,1910,'\'(39.25-44]\'',39,0.233,'\'(13.86-15.19]\'',77,'\'(0.653125-0.7725]\'',20,'\'(7.16-10.74]\'',2000,'\'(51.77-55.36]\'','\'(37.7-40.84]\'','\'(-inf-1.6]\'','\'(-inf-0.6]\'','\'(2.48-2.79]\'','\'(0.9-1.2]\'','\'(37.6-40.8]\'',40,'\'(100.595-104.048]\'',100,noband
19910301,e77,kmart,37386,yes,key,yes,benton,gallatin,uncoated,uncoated,no,line,yes,motter94,827,'\'(8.2-9.1]\'',tabloid,southus,1910,'\'(39.25-44]\'',39,0.2,'\'(13.86-15.19]\'',79,'\'(0.653125-0.7725]\'',20,'\'(10.74-14.32]\'',2000,'\'(48.18-51.77]\'','\'(37.7-40.84]\'','\'(-inf-1.6]\'','\'(-inf-0.6]\'','\'(2.48-2.79]\'','\'(0.9-1.2]\'','\'(37.6-40.8]\'',40,'\'(100.595-104.048]\'',100,noband
19910309,e83,kmart,37386,?,key,yes,benton,gallatin,uncoated,uncoated,no,line,yes,motter94,827,'\'(1.9-2.8]\'',tabloid,southus,1911,?,43,0.267,'\'(13.86-15.19]\'',68,'\'(0.653125-0.7725]\'',18,'\'(-inf-3.58]\'',2000,'\'(58.95-62.54]\'','\'(34.56-37.7]\'','\'(-inf-1.6]\'','\'(-inf-0.6]\'','\'(2.48-2.79]\'','\'(0.9-1.2]\'','\'(37.6-40.8]\'',40,'\'(104.048-107.501]\'',100,band
19910306,e67,kmart,37386,?,key,yes,benton,gallatin,uncoated,uncoated,no,line,yes,motter94,827,'\'(1.9-2.8]\'',tabloid,southus,1910,?,48,0.233,'\'(13.86-15.19]\'',80,'\'(0.653125-0.7725]\'',30,'\'(-inf-3.58]\'',2000,'\'(58.95-62.54]\'','\'(34.56-37.7]\'','\'(-inf-1.6]\'','\'(-inf-0.6]\'',?,?,'\'(37.6-40.8]\'',40,'\'(107.501-110.954]\'',100,band
19910311,e83,kmart,27386,?,key,yes,benton,gallatin,uncoated,uncoated,no,line,no,motter94,827,'\'(1.9-2.8]\'',tabloid,southus,1911,?,40,0.267,'\'(15.19-16.52]\'',72,'\'(0.891875-1.01125]\'',26,'\'(-inf-3.58]\'',2000,'\'(58.95-62.54]\'','\'(34.56-37.7]\'','\'(-inf-1.6]\'','\'(-inf-0.6]\'','\'(2.48-2.79]\'','\'(0.9-1.2]\'','\'(37.6-40.8]\'',40,'\'(104.048-107.501]\'',100,band
19910311,x791,kmart,37386,yes,key,yes,benton,gallatin,uncoated,uncoated,no,line,yes,motter94,824,'\'(8.2-9.1]\'',tabloid,southus,1911,'\'(39.25-44]\'',40,0.35,'\'(17.85-19.18]\'',85,'\'(0.53375-0.653125]\'',30,'\'(-inf-3.58]\'',1900,'\'(58.95-62.54]\'','\'(34.56-37.7]\'','\'(3.2-4.8]\'','\'(-inf-0.6]\'','\'(1.55-1.86]\'','\'(1.2-1.5]\'','\'(37.6-40.8]\'',40,'\'(104.048-107.501]\'',100,band
19910227,e90,kmart,37254,no,key,yes,benton,gallatin,uncoated,coated,no,line,yes,motter94,821,'\'(6.4-7.3]\'',tabloid,?,1911,'\'(39.25-44]\'',41,0.3,'\'(13.86-15.19]\'',70,'\'(0.53375-0.653125]\'',20,'\'(-inf-3.58]\'',1750,'\'(55.36-58.95]\'','\'(37.7-40.84]\'','\'(3.2-4.8]\'','\'(-inf-0.6]\'','\'(2.48-2.79]\'','\'(0.6-0.9]\'','\'(34.4-37.6]\'',40,'\'(93.689-97.142]\'',100,noband
19910302,x271,eckerd,35457,no,key,yes,benton,gallatin,coated,coated,no,line,yes,motter94,828,'\'(8.2-9.1]\'',tabloid,canadian,1910,'\'(34.5-39.25]\'',39,0.2,'\'(15.19-16.52]\'',84,'\'(0.891875-1.01125]\'',30,'\'(-inf-3.58]\'',2100,'\'(58.95-62.54]\'','\'(34.56-37.7]\'','\'(3.2-4.8]\'','\'(-inf-0.6]\'','\'(1.86-2.17]\'','\'(0.9-1.2]\'','\'(-inf-31.2]\'',40,'\'(93.689-97.142]\'',100,noband
19910307,f308,modmat,47202,no,key,yes,benton,gallatin,coated,uncoated,no,line,yes,motter70,813,'\'(8.2-9.1]\'',catalog,northus,1910,'\'(34.5-39.25]\'',45,0.3,'\'(13.86-15.19]\'',65,'\'(0.891875-1.01125]\'',?,'\'(-inf-3.58]\'',1500,'\'(58.95-62.54]\'','\'(37.7-40.84]\'','\'(-inf-1.6]\'','\'(-inf-0.6]\'','\'(2.48-2.79]\'','\'(0.9-1.2]\'','\'(37.6-40.8]\'',40,'\'(107.501-110.954]\'',100,noband
19910308,t281,modmat,47202,no,key,yes,benton,gallatin,uncoated,uncoated,no,xylol,yes,albert70,802,'\'(1.9-2.8]\'',catalog,northus,1910,'\'(48.75-53.5]\'',43,0.333,'\'(13.86-15.19]\'',68,'\'(0.653125-0.7725]\'',56,'\'(7.16-10.74]\'',1800,'\'(51.77-55.36]\'','\'(37.7-40.84]\'','\'(-inf-1.6]\'','\'(-inf-0.6]\'','\'(2.79-inf)\'','\'(1.2-1.5]\'','\'(37.6-40.8]\'',40,'\'(107.501-110.954]\'',100,noband
19910307,f067,modmat,47202,no,key,yes,benton,gallatin,uncoated,uncoated,no,line,yes,woodhoe70,816,'\'(1.9-2.8]\'',catalog,northus,1910,'\'(63-67.75]\'',45,0.2,'\'(15.19-16.52]\'',80,'\'(0.414375-0.53375]\'',34,'\'(14.32-17.9]\'',1683,'\'(-inf-44.59]\'','\'(37.7-40.84]\'','\'(4.8-6.4]\'','\'(-inf-0.6]\'','\'(2.48-2.79]\'','\'(0.9-1.2]\'','\'(37.6-40.8]\'',40,'\'(107.501-110.954]\'',100,noband
19910310,x405,ames,37163,no,key,yes,benton,gallatin,coated,coated,no,line,yes,motter94,821,'\'(1.9-2.8]\'',tabloid,canadian,1910,'\'(53.5-58.25]\'',37,0.267,'\'(15.19-16.52]\'',75,'\'(0.53375-0.653125]\'',20,'\'(3.58-7.16]\'',1850,'\'(55.36-58.95]\'','\'(37.7-40.84]\'','\'(-inf-1.6]\'','\'(-inf-0.6]\'','\'(0.62-0.93]\'','\'(0.6-0.9]\'','\'(31.2-34.4]\'',40,'\'(107.501-110.954]\'',100,noband
19910227,e91,kmart,37354,no,key,yes,benton,gallatin,uncoated,coated,no,line,yes,motter94,821,'\'(1.9-2.8]\'',tabloid,?,1911,'\'(39.25-44]\'',41,0.2,'\'(13.86-15.19]\'',80,'\'(0.53375-0.653125]\'',20,'\'(7.16-10.74]\'',1750,'\'(51.77-55.36]\'','\'(37.7-40.84]\'','\'(-inf-1.6]\'','\'(-inf-0.6]\'','\'(1.86-2.17]\'','\'(0.9-1.2]\'','\'(34.4-37.6]\'',40,'\'(93.689-97.142]\'',100,noband
19910307,f615,modmat,47202,yes,key,yes,benton,gallatin,uncoated,uncoated,no,line,yes,motter70,813,'\'(-inf-1.9]\'',catalog,northus,1910,'\'(48.75-53.5]\'',45,0.2,'\'(15.19-16.52]\'',72,'\'(0.653125-0.7725]\'',?,'\'(10.74-14.32]\'',1600,'\'(48.18-51.77]\'','\'(34.56-37.7]\'','\'(-inf-1.6]\'','\'(-inf-0.6]\'','\'(2.48-2.79]\'','\'(0.9-1.2]\'','\'(37.6-40.8]\'',40,'\'(107.501-110.954]\'',100,noband
19910307,f510,modmat,47202,no,key,yes,benton,gallatin,coated,uncoated,no,line,yes,motter70,813,'\'(9.1-inf)\'',catalog,northus,1910,'\'(34.5-39.25]\'',45,0.2,'\'(15.19-16.52]\'',63,'\'(0.891875-1.01125]\'',?,'\'(-inf-3.58]\'',1500,'\'(58.95-62.54]\'','\'(37.7-40.84]\'','\'(-inf-1.6]\'','\'(-inf-0.6]\'','\'(2.17-2.48]\'','\'(0.9-1.2]\'','\'(37.6-40.8]\'',40,'\'(107.501-110.954]\'',100,noband
19910307,f670,modmat,47202,yes,key,yes,benton,gallatin,uncoated,uncoated,no,line,yes,motter70,813,'\'(4.6-5.5]\'',catalog,northus,1910,'\'(48.75-53.5]\'',45,0.233,'\'(15.19-16.52]\'',68,'\'(0.653125-0.7725]\'',?,'\'(-inf-3.58]\'',1600,'\'(55.36-58.95]\'','\'(40.84-43.98]\'','\'(3.2-4.8]\'','\'(-inf-0.6]\'','\'(2.17-2.48]\'','\'(0.6-0.9]\'','\'(37.6-40.8]\'',40,'\'(107.501-110.954]\'',100,noband
19910317,e310,kmart,37355,no,key,yes,benton,gallatin,uncoated,coated,no,line,yes,woodhoe70,816,'\'(8.2-9.1]\'',tabloid,?,1910,'\'(48.75-53.5]\'',43,0.35,'\'(13.86-15.19]\'',74,'\'(0.653125-0.7725]\'',23,'\'(7.16-10.74]\'',1900,'\'(55.36-58.95]\'','\'(31.42-34.56]\'','\'(1.6-3.2]\'','\'(-inf-0.6]\'','\'(0.62-0.93]\'','\'(-inf-0.3]\'','\'(34.4-37.6]\'',40,'\'(100.595-104.048]\'',100,band
19910314,f670,modmat,47202,yes,key,yes,benton,gallatin,uncoated,uncoated,no,line,yes,motter70,813,'\'(4.6-5.5]\'',catalog,northus,1910,'\'(48.75-53.5]\'',37,0.233,'\'(13.86-15.19]\'',73,'\'(0.653125-0.7725]\'',?,'\'(7.16-10.74]\'',1600,'\'(51.77-55.36]\'','\'(34.56-37.7]\'','\'(-inf-1.6]\'','\'(-inf-0.6]\'','\'(2.17-2.48]\'','\'(0.9-1.2]\'','\'(37.6-40.8]\'',40,'\'(107.501-110.954]\'',100,noband
19910309,m402,modmat,47202,yes,key,yes,benton,gallatin,uncoated,uncoated,no,line,yes,motter70,813,'\'(8.2-9.1]\'',catalog,northus,1910,'\'(48.75-53.5]\'',43,0.267,'\'(13.86-15.19]\'',76,'\'(0.414375-0.53375]\'',31,'\'(3.58-7.16]\'',1650,'\'(51.77-55.36]\'','\'(37.7-40.84]\'','\'(-inf-1.6]\'','\'(-inf-0.6]\'','\'(2.48-2.79]\'','\'(1.2-1.5]\'','\'(37.6-40.8]\'',40,'\'(107.501-110.954]\'',100,noband
19910316,x18,kmart,37355,no,key,yes,benton,gallatin,uncoated,coated,no,line,yes,motter94,828,'\'(8.2-9.1]\'',tabloid,scandanavian,1910,'\'(39.25-44]\'',44,0.2,'\'(15.19-16.52]\'',78,'\'(0.891875-1.01125]\'',30,'\'(3.58-7.16]\'',1800,'\'(55.36-58.95]\'','\'(37.7-40.84]\'','\'(-inf-1.6]\'','\'(-inf-0.6]\'','\'(1.86-2.17]\'','\'(0.9-1.2]\'','\'(34.4-37.6]\'',40,'\'(100.595-104.048]\'',100,noband
19910314,f615,modmat,47202,yes,key,yes,benton,gallatin,uncoated,uncoated,no,line,yes,motter70,813,'\'(-inf-1.9]\'',catalog,northus,?,'\'(48.75-53.5]\'',37,0.2,'\'(13.86-15.19]\'',66,'\'(0.653125-0.7725]\'',?,'\'(10.74-14.32]\'',1600,'\'(55.36-58.95]\'','\'(40.84-43.98]\'','\'(-inf-1.6]\'','\'(-inf-0.6]\'','\'(2.17-2.48]\'','\'(0.6-0.9]\'','\'(37.6-40.8]\'',40,'\'(97.142-100.595]\'',100,noband
19910318,f310,kmart,37355,no,key,yes,benton,gallatin,uncoated,coated,no,line,yes,motter94,827,'\'(1.9-2.8]\'',tabloid,?,1910,'\'(39.25-44]\'',43,0.35,'\'(15.19-16.52]\'',72,'\'(0.53375-0.653125]\'',20,'\'(7.16-10.74]\'',2000,'\'(55.36-58.95]\'','\'(31.42-34.56]\'','\'(3.2-4.8]\'','\'(-inf-0.6]\'','\'(2.48-2.79]\'','\'(0.3-0.6]\'','\'(34.4-37.6]\'',40,'\'(100.595-104.048]\'',100,noband
19910318,f72,kmart,37355,no,key,yes,benton,gallatin,uncoated,coated,no,line,yes,motter94,827,'\'(8.2-9.1]\'',tabloid,?,1910,'\'(39.25-44]\'',43,0.35,'\'(15.19-16.52]\'',70,'\'(0.53375-0.653125]\'',20,'\'(10.74-14.32]\'',2000,'\'(55.36-58.95]\'','\'(31.42-34.56]\'','\'(3.2-4.8]\'','\'(-inf-0.6]\'','\'(1.55-1.86]\'','\'(0.9-1.2]\'','\'(34.4-37.6]\'',40,'\'(100.595-104.048]\'',100,noband
19910319,x308,roses,35753,no,key,yes,benton,gallatin,coated,coated,no,line,yes,motter94,824,'\'(8.2-9.1]\'',tabloid,canadian,1910,'\'(39.25-44]\'',43,0.267,'\'(15.19-16.52]\'',80,'\'(0.53375-0.653125]\'',30,'\'(3.58-7.16]\'',1900,'\'(55.36-58.95]\'','\'(37.7-40.84]\'','\'(-inf-1.6]\'','\'(-inf-0.6]\'','\'(2.17-2.48]\'','\'(1.2-1.5]\'','\'(-inf-31.2]\'',40,'\'(100.595-104.048]\'',100,noband
19910319,x720,tvguide,25513,yes,key,yes,benton,gallatin,uncoated,uncoated,no,line,yes,motter94,821,'\'(6.4-7.3]\'',tabloid,northus,1911,'\'(44-48.75]\'',45,?,'\'(13.86-15.19]\'',75,'\'(0.53375-0.653125]\'',30,'\'(14.32-17.9]\'',1734,'\'(48.18-51.77]\'','\'(34.56-37.7]\'','\'(1.6-3.2]\'','\'(-inf-0.6]\'','\'(1.24-1.55]\'','\'(0.3-0.6]\'','\'(31.2-34.4]\'',40,'\'(100.595-104.048]\'',100,band
19910322,g404,jcp,38051,no,key,yes,benton,gallatin,uncoated,coated,no,line,yes,woodhoe70,816,'\'(1.9-2.8]\'',tabloid,?,?,'\'(58.25-63]\'',49,0.333,'\'(13.86-15.19]\'',77,'\'(0.653125-0.7725]\'',27,'\'(-inf-3.58]\'',1650,'\'(55.36-58.95]\'','\'(40.84-43.98]\'','\'(-inf-1.6]\'','\'(-inf-0.6]\'','\'(2.48-2.79]\'','\'(0.6-0.9]\'','\'(31.2-34.4]\'',40,'\'(100.595-104.048]\'',100,noband
19910325,x798,tvguide,25514,yes,key,yes,benton,gallatin,uncoated,uncoated,no,line,no,motter94,821,'\'(6.4-7.3]\'',tabloid,?,1910,'\'(53.5-58.25]\'',49,0.267,'\'(-inf-12.53]\'',70,'\'(0.53375-0.653125]\'',30,'\'(3.58-7.16]\'',1750,'\'(55.36-58.95]\'','\'(37.7-40.84]\'','\'(-inf-1.6]\'','\'(-inf-0.6]\'','\'(2.48-2.79]\'','\'(0.9-1.2]\'','\'(31.2-34.4]\'',40,'\'(104.048-107.501]\'',100,band
19910320,x160,tvguide,25513,yes,key,yes,benton,gallatin,uncoated,uncoated,no,line,yes,motter94,821,'\'(1.9-2.8]\'',tabloid,?,1911,'\'(44-48.75]\'',45,?,'\'(13.86-15.19]\'',75,'\'(0.53375-0.653125]\'',20,'\'(14.32-17.9]\'',1750,'\'(48.18-51.77]\'','\'(34.56-37.7]\'','\'(-inf-1.6]\'','\'(-inf-0.6]\'','\'(1.55-1.86]\'','\'(0.9-1.2]\'','\'(31.2-34.4]\'',40,'\'(100.595-104.048]\'',100,noband
19910322,g416,jcp,38051,no,key,yes,benton,gallatin,uncoated,coated,no,line,yes,woodhoe70,816,'\'(8.2-9.1]\'',tabloid,?,1910,'\'(53.5-58.25]\'',49,0.2,'\'(15.19-16.52]\'',74,'\'(0.653125-0.7725]\'',24,'\'(-inf-3.58]\'',1650,'\'(55.36-58.95]\'','\'(40.84-43.98]\'','\'(-inf-1.6]\'','\'(-inf-0.6]\'','\'(2.48-2.79]\'','\'(1.5-1.8]\'','\'(31.2-34.4]\'',40,'\'(100.595-104.048]\'',100,noband
19910323,x350,kmart,37355,no,key,yes,benton,gallatin,coated,coated,no,line,yes,motter94,828,'\'(1.9-2.8]\'',tabloid,?,1911,'\'(39.25-44]\'',49,0.233,'\'(15.19-16.52]\'',74,'\'(0.891875-1.01125]\'',34,'\'(-inf-3.58]\'',2000,'\'(58.95-62.54]\'','\'(34.56-37.7]\'','\'(-inf-1.6]\'','\'(-inf-0.6]\'','\'(2.17-2.48]\'','\'(0.9-1.2]\'','\'(34.4-37.6]\'',40,'\'(97.142-100.595]\'',100,noband
19910323,x264,kmart,37355,no,key,yes,benton,gallatin,coated,coated,no,line,yes,motter94,828,'\'(8.2-9.1]\'',tabloid,?,1911,'\'(39.25-44]\'',49,0.233,'\'(16.52-17.85]\'',78,'\'(0.891875-1.01125]\'',30,'\'(-inf-3.58]\'',2000,'\'(58.95-62.54]\'','\'(34.56-37.7]\'','\'(-inf-1.6]\'','\'(-inf-0.6]\'','\'(2.17-2.48]\'','\'(0.9-1.2]\'','\'(34.4-37.6]\'',40,'\'(97.142-100.595]\'',100,noband
19910402,x838,tvguide,25515,yes,key,yes,benton,gallatin,uncoated,uncoated,no,line,yes,motter94,821,'\'(6.4-7.3]\'',tabloid,northus,1911,'\'(39.25-44]\'',46,0.3,'\'(13.86-15.19]\'',77,'\'(0.53375-0.653125]\'',42,'\'(14.32-17.9]\'',1850,'\'(48.18-51.77]\'','\'(34.56-37.7]\'','\'(6.4-8]\'','\'(-inf-0.6]\'','\'(1.24-1.55]\'','\'(0.6-0.9]\'','\'(31.2-34.4]\'',40,'\'(97.142-100.595]\'',100,band
19910404,x89,woolworth,37081,no,key,no,benton,gallatin,coated,coated,no,line,yes,motter94,828,'\'(-inf-1.9]\'',tabloid,canadian,1911,'\'(34.5-39.25]\'',44,0.2,'\'(15.19-16.52]\'',100,'\'(0.7725-0.891875]\'',30,'\'(-inf-3.58]\'',2200,'\'(51.77-55.36]\'','\'(43.98-47.12]\'','\'(-inf-1.6]\'','\'(-inf-0.6]\'','\'(-inf-0.31]\'','\'(-inf-0.3]\'','\'(-inf-31.2]\'',40,'\'(97.142-100.595]\'',100,band
19910330,x102,belk,35534,yes,key,yes,benton,gallatin,uncoated,uncoated,no,line,no,motter94,827,'\'(1.9-2.8]\'',tabloid,northus,1910,'\'(39.25-44]\'',44,0.3,'\'(13.86-15.19]\'',80,'\'(1.130625-inf)\'',20,'\'(14.32-17.9]\'',1300,'\'(48.18-51.77]\'','\'(31.42-34.56]\'','\'(-inf-1.6]\'','\'(-inf-0.6]\'','\'(2.48-2.79]\'','\'(-inf-0.3]\'','\'(37.6-40.8]\'',40,'\'(107.501-110.954]\'',100,noband
19910330,x830,belk,35534,yes,key,yes,benton,gallatin,uncoated,uncoated,no,line,no,motter94,827,'\'(8.2-9.1]\'',tabloid,northus,1910,'\'(44-48.75]\'',44,0.3,'\'(15.19-16.52]\'',75,'\'(1.130625-inf)\'',20,'\'(10.74-14.32]\'',1300,'\'(48.18-51.77]\'','\'(34.56-37.7]\'','\'(-inf-1.6]\'','\'(-inf-0.6]\'','\'(2.48-2.79]\'','\'(1.2-1.5]\'','\'(37.6-40.8]\'',40,'\'(107.501-110.954]\'',100,noband
19910405,x118,roses,35754,no,key,yes,benton,gallatin,coated,coated,no,line,yes,motter94,824,'\'(1.9-2.8]\'',tabloid,canadian,1910,'\'(48.75-53.5]\'',43,0.3,'\'(15.19-16.52]\'',70,'\'(0.7725-0.891875]\'',30,'\'(-inf-3.58]\'',2400,'\'(55.36-58.95]\'','\'(37.7-40.84]\'','\'(-inf-1.6]\'','\'(-inf-0.6]\'','\'(2.48-2.79]\'','\'(0.6-0.9]\'','\'(-inf-31.2]\'',40,'\'(100.595-104.048]\'',100,noband
19910405,x35,roses,35754,no,key,yes,benton,gallatin,coated,coated,no,line,yes,motter94,824,'\'(8.2-9.1]\'',tabloid,canadian,1910,'\'(44-48.75]\'',43,0.267,'\'(15.19-16.52]\'',80,'\'(0.53375-0.653125]\'',30,'\'(7.16-10.74]\'',2400,'\'(48.18-51.77]\'','\'(37.7-40.84]\'','\'(-inf-1.6]\'','\'(-inf-0.6]\'','\'(2.48-2.79]\'','\'(0.9-1.2]\'','\'(-inf-31.2]\'',40,'\'(100.595-104.048]\'',100,noband
19910327,x390,colortile,37572,no,key,yes,benton,gallatin,coated,coated,no,line,yes,motter94,824,'\'(1.9-2.8]\'',tabloid,canadian,1911,'\'(34.5-39.25]\'',48,0.233,'\'(15.19-16.52]\'',76,'\'(0.7725-0.891875]\'',30,'\'(7.16-10.74]\'',1900,'\'(48.18-51.77]\'','\'(40.84-43.98]\'','\'(-inf-1.6]\'','\'(-inf-0.6]\'','\'(2.48-2.79]\'','\'(0.9-1.2]\'','\'(-inf-31.2]\'',40,'\'(100.595-104.048]\'',100,noband
19910327,x754,colortile,37572,no,key,yes,benton,gallatin,coated,coated,no,line,yes,motter94,824,'\'(8.2-9.1]\'',tabloid,canadian,1911,'\'(34.5-39.25]\'',48,0.233,'\'(15.19-16.52]\'',86,'\'(0.53375-0.653125]\'',30,'\'(14.32-17.9]\'',1900,'\'(44.59-48.18]\'','\'(37.7-40.84]\'','\'(-inf-1.6]\'','\'(-inf-0.6]\'','\'(2.48-2.79]\'','\'(1.2-1.5]\'','\'(-inf-31.2]\'',40,'\'(100.595-104.048]\'',100,noband
19910402,o2,target,35814,no,key,yes,benton,gallatin,uncoated,coated,no,line,yes,motter94,827,'\'(1.9-2.8]\'',spiegel,canadian,1911,'\'(34.5-39.25]\'',43,0.233,'\'(13.86-15.19]\'',75,'\'(1.130625-inf)\'',20,'\'(7.16-10.74]\'',?,'\'(51.77-55.36]\'','\'(37.7-40.84]\'','\'(-inf-1.6]\'','\'(-inf-0.6]\'','\'(2.48-2.79]\'','\'(1.8-2.1]\'','\'(31.2-34.4]\'',40,'\'(104.048-107.501]\'',100,noband
19910402,3,target,35814,no,key,yes,benton,gallatin,uncoated,coated,no,line,yes,motter94,827,'\'(8.2-9.1]\'',spiegel,canadian,1911,'\'(34.5-39.25]\'',43,0.233,'\'(13.86-15.19]\'',80,'\'(1.130625-inf)\'',20,'\'(3.58-7.16]\'',?,'\'(51.77-55.36]\'','\'(40.84-43.98]\'','\'(-inf-1.6]\'','\'(-inf-0.6]\'','\'(2.79-inf)\'','\'(1.2-1.5]\'','\'(31.2-34.4]\'',40,'\'(104.048-107.501]\'',100,noband
19910406,f103,bestprod,37822,no,key,yes,benton,gallatin,uncoated,coated,no,line,yes,motter70,813,'\'(-inf-1.9]\'',catalog,northus,1910,'\'(39.25-44]\'',44,0.2,'\'(13.86-15.19]\'',68,'\'(0.653125-0.7725]\'',?,'\'(-inf-3.58]\'',1750,'\'(55.36-58.95]\'','\'(40.84-43.98]\'','\'(-inf-1.6]\'','\'(-inf-0.6]\'','\'(2.48-2.79]\'','\'(0.6-0.9]\'','\'(34.4-37.6]\'',40,'\'(100.595-104.048]\'',100,noband
19910406,s180,bestprod,37822,no,key,yes,benton,gallatin,uncoated,coated,no,line,yes,motter70,813,'\'(4.6-5.5]\'',catalog,northus,1910,'\'(39.25-44]\'',44,0.233,'\'(15.19-16.52]\'',68,'\'(0.653125-0.7725]\'',?,'\'(3.58-7.16]\'',1750,'\'(55.36-58.95]\'','\'(37.7-40.84]\'','\'(-inf-1.6]\'','\'(-inf-0.6]\'','\'(1.24-1.55]\'','\'(0.3-0.6]\'','\'(34.4-37.6]\'',40,'\'(100.595-104.048]\'',100,noband
19910511,o8,target,35816,no,key,yes,benton,gallatin,coated,coated,no,line,yes,motter94,827,'\'(1.9-2.8]\'',spiegel,canadian,1910,'\'(44-48.75]\'',68,0.4,'\'(13.86-15.19]\'',78,'\'(0.653125-0.7725]\'',22,'\'(-inf-3.58]\'',1900,'\'(58.95-62.54]\'','\'(34.56-37.7]\'','\'(-inf-1.6]\'','\'(-inf-0.6]\'','\'(1.86-2.17]\'','\'(1.5-1.8]\'','\'(31.2-34.4]\'',40,'\'(100.595-104.048]\'',100,band
19910501,g608,eckerd,35458,no,key,yes,benton,gallatin,coated,coated,no,line,no,woodhoe70,816,'\'(1.9-2.8]\'',tabloid,canadian,1910,'\'(39.25-44]\'',60,0.233,'\'(13.86-15.19]\'',78,'\'(0.891875-1.01125]\'',28,'\'(-inf-3.58]\'',2380,'\'(58.95-62.54]\'','\'(37.7-40.84]\'','\'(1.6-3.2]\'','\'(-inf-0.6]\'','\'(2.48-2.79]\'','\'(0.9-1.2]\'','\'(-inf-31.2]\'',40,'\'(104.048-107.501]\'',100,band
19910502,f416,modmat,47203,yes,key,yes,benton,gallatin,coated,coated,no,line,no,motter70,813,'\'(8.2-9.1]\'',catalog,northus,1910,'\'(53.5-58.25]\'',55,0.3,'\'(15.19-16.52]\'',100,'\'(0.891875-1.01125]\'',?,'\'(-inf-3.58]\'',1650,'\'(55.36-58.95]\'','\'(40.84-43.98]\'','\'(-inf-1.6]\'','\'(-inf-0.6]\'',?,?,'\'(37.6-40.8]\'',40,'\'(104.048-107.501]\'',100,band
19910502,r14,target,35816,no,key,yes,benton,gallatin,coated,coated,no,line,yes,woodhoe70,815,'\'(1.9-2.8]\'',spiegel,canadian,1910,'\'(39.25-44]\'',55,0.433,'\'(15.19-16.52]\'',92,'\'(0.653125-0.7725]\'',22,'\'(7.16-10.74]\'',1550,'\'(51.77-55.36]\'','\'(34.56-37.7]\'','\'(-inf-1.6]\'','\'(-inf-0.6]\'','\'(2.79-inf)\'','\'(1.2-1.5]\'','\'(31.2-34.4]\'',40,'\'(104.048-107.501]\'',100,band
19910503,r14,target,35816,no,key,yes,benton,gallatin,coated,coated,no,line,yes,woodhoe70,815,'\'(1.9-2.8]\'',spiegel,canadian,1910,'\'(39.25-44]\'',52,?,'\'(15.19-16.52]\'',86,'\'(0.653125-0.7725]\'',26,'\'(7.16-10.74]\'',1975,'\'(51.77-55.36]\'','\'(34.56-37.7]\'','\'(-inf-1.6]\'','\'(-inf-0.6]\'','\'(2.79-inf)\'','\'(1.2-1.5]\'','\'(31.2-34.4]\'',40,'\'(97.142-100.595]\'',100,band
19910503,x249,guideposts,23055,yes,key,yes,benton,gallatin,uncoated,cover,no,line,yes,motter94,821,'\'(6.4-7.3]\'',tabloid,?,1910,'\'(39.25-44]\'',52,0.4,'\'(13.86-15.19]\'',76,'\'(0.53375-0.653125]\'',25,'\'(-inf-3.58]\'',1800,'\'(48.18-51.77]\'','\'(47.12-50.26]\'','\'(-inf-1.6]\'','\'(-inf-0.6]\'','\'(2.48-2.79]\'','\'(0.9-1.2]\'','\'(37.6-40.8]\'',40,'\'(104.048-107.501]\'',100,band
19910507,x817,tvguide,25520,yes,key,yes,benton,gallatin,uncoated,uncoated,no,line,yes,motter94,821,'\'(6.4-7.3]\'',tabloid,canadian,1910,'\'(48.75-53.5]\'',56,0.267,'\'(15.19-16.52]\'',76,'\'(0.53375-0.653125]\'',25,'\'(-inf-3.58]\'',1760,'\'(55.36-58.95]\'','\'(37.7-40.84]\'','\'(1.6-3.2]\'','\'(-inf-0.6]\'','\'(2.48-2.79]\'','\'(0.6-0.9]\'','\'(31.2-34.4]\'',40,'\'(100.595-104.048]\'',100,band
19910508,x746,tvguide,25520,yes,key,yes,benton,gallatin,uncoated,uncoated,no,line,yes,motter94,821,'\'(6.4-7.3]\'',tabloid,northus,1910,'\'(44-48.75]\'',57,0.267,'\'(13.86-15.19]\'',76,'\'(0.653125-0.7725]\'',20,'\'(-inf-3.58]\'',1800,'\'(55.36-58.95]\'','\'(37.7-40.84]\'','\'(1.6-3.2]\'','\'(-inf-0.6]\'','\'(1.86-2.17]\'','\'(0.6-0.9]\'','\'(31.2-34.4]\'',40,'\'(100.595-104.048]\'',100,band
19910517,x195,toysrus,35982,no,key,no,benton,gallatin,coated,coated,no,line,no,motter94,824,'\'(1.9-2.8]\'',tabloid,canadian,1910,'\'(44-48.75]\'',67,0.4,'\'(15.19-16.52]\'',74,'\'(0.7725-0.891875]\'',38,'\'(-inf-3.58]\'',1900,'\'(55.36-58.95]\'','\'(40.84-43.98]\'','\'(1.6-3.2]\'','\'(-inf-0.6]\'','\'(2.48-2.79]\'','\'(0.9-1.2]\'','\'(31.2-34.4]\'',40,'\'(100.595-104.048]\'',100,noband
19910517,x405,toysrus,35872,no,key,no,benton,gallatin,coated,coated,no,line,yes,motter94,824,'\'(8.2-9.1]\'',tabloid,canadian,1910,'\'(44-48.75]\'',67,0.333,'\'(15.19-16.52]\'',82,'\'(0.53375-0.653125]\'',30,'\'(-inf-3.58]\'',1900,'\'(48.18-51.77]\'','\'(31.42-34.56]\'','\'(-inf-1.6]\'','\'(-inf-0.6]\'','\'(2.48-2.79]\'','\'(0.9-1.2]\'','\'(31.2-34.4]\'',40,'\'(100.595-104.048]\'',100,noband
19910505,m337,modmat,47203,yes,key,yes,benton,gallatin,uncoated,uncoated,no,line,yes,motter70,813,'\'(4.6-5.5]\'',catalog,northus,1910,'\'(48.75-53.5]\'',52,0.3,'\'(16.52-17.85]\'',69,'\'(0.653125-0.7725]\'',?,'\'(-inf-3.58]\'',1700,'\'(55.36-58.95]\'','\'(40.84-43.98]\'','\'(-inf-1.6]\'','\'(-inf-0.6]\'','\'(2.17-2.48]\'','\'(0.9-1.2]\'','\'(37.6-40.8]\'',40,'\'(104.048-107.501]\'',100,noband
19910507,t32,modmat,47203,yes,key,yes,benton,gallatin,uncoated,uncoated,no,line,no,albert70,802,'\'(6.4-7.3]\'',catalog,northus,1910,'\'(48.75-53.5]\'',55,0.233,'\'(12.53-13.86]\'',74,'\'(0.53375-0.653125]\'',?,'\'(3.58-7.16]\'',1635,'\'(58.95-62.54]\'','\'(34.56-37.7]\'','\'(-inf-1.6]\'','\'(-inf-0.6]\'','\'(2.79-inf)\'','\'(1.8-2.1]\'','\'(37.6-40.8]\'',40,'\'(97.142-100.595]\'',100,noband
19910507,m410,modmat,47203,yes,key,yes,benton,gallatin,uncoated,uncoated,no,line,no,albert70,802,'\'(1.9-2.8]\'',catalog,northus,1910,'\'(48.75-53.5]\'',55,0.233,'\'(12.53-13.86]\'',70,'\'(0.53375-0.653125]\'',47,'\'(7.16-10.74]\'',1635,'\'(48.18-51.77]\'','\'(37.7-40.84]\'','\'(-inf-1.6]\'','\'(-inf-0.6]\'','\'(2.79-inf)\'','\'(0.9-1.2]\'','\'(37.6-40.8]\'',40,'\'(97.142-100.595]\'',100,noband
19910505,e510,modmat,47203,yes,key,yes,benton,gallatin,uncoated,uncoated,no,line,yes,motter70,813,'\'(-inf-1.9]\'',catalog,northus,1910,'\'(48.75-53.5]\'',52,0.267,'\'(15.19-16.52]\'',71,'\'(0.653125-0.7725]\'',?,'\'(17.9-21.48]\'',1700,'\'(44.59-48.18]\'','\'(31.42-34.56]\'','\'(-inf-1.6]\'','\'(-inf-0.6]\'','\'(2.48-2.79]\'','\'(0.3-0.6]\'','\'(37.6-40.8]\'',40,'\'(104.048-107.501]\'',100,noband
19910409,g108,ames,37168,no,key,yes,benton,gallatin,coated,coated,no,line,yes,woodhoe70,815,'\'(1.9-2.8]\'',tabloid,canadian,1911,'\'(29.75-34.5]\'',63,0.3,'\'(12.53-13.86]\'',94,'\'(0.891875-1.01125]\'',29,'\'(-inf-3.58]\'',1800,'\'(55.36-58.95]\'','\'(40.84-43.98]\'','\'(-inf-1.6]\'','\'(-inf-0.6]\'','\'(2.48-2.79]\'','\'(0.9-1.2]\'','\'(-inf-31.2]\'',40,'\'(107.501-110.954]\'',100,band
19910415,g145,wards,37333,no,key,yes,benton,gallatin,coated,coated,no,line,yes,woodhoe70,815,'\'(1.9-2.8]\'',tabloid,canadian,1911,'\'(48.75-53.5]\'',60,0.267,'\'(12.53-13.86]\'',86,'\'(1.01125-1.130625]\'',28,'\'(-inf-3.58]\'',1500,'\'(62.54-66.13]\'','\'(34.56-37.7]\'','\'(-inf-1.6]\'','\'(-inf-0.6]\'','\'(2.48-2.79]\'','\'(0.9-1.2]\'','\'(31.2-34.4]\'',40,'\'(104.048-107.501]\'',100,band
19910416,x356,tvguide,25517,yes,key,yes,benton,gallatin,uncoated,uncoated,no,line,no,motter94,821,'\'(6.4-7.3]\'',tabloid,northus,1911,'\'(53.5-58.25]\'',53,0.3,'\'(13.86-15.19]\'',72,'\'(0.53375-0.653125]\'',25,'\'(21.48-25.06]\'',1750,'\'(44.59-48.18]\'','\'(31.42-34.56]\'','\'(-inf-1.6]\'','\'(-inf-0.6]\'','\'(2.17-2.48]\'','\'(0.9-1.2]\'','\'(31.2-34.4]\'',40,'\'(100.595-104.048]\'',100,band
19910426,g95,wards,37333,no,key,yes,benton,gallatin,coated,coated,no,line,no,woodhoe70,815,'\'(1.9-2.8]\'',tabloid,canadian,1910,'\'(34.5-39.25]\'',56,0.3,'\'(15.19-16.52]\'',80,'\'(0.653125-0.7725]\'',20,'\'(-inf-3.58]\'',1900,'\'(73.31-inf)\'','\'(-inf-25.14]\'','\'(-inf-1.6]\'','\'(-inf-0.6]\'','\'(2.48-2.79]\'','\'(1.2-1.5]\'','\'(31.2-34.4]\'',40,'\'(104.048-107.501]\'',100,band
19910426,x802,hanhouse,37994,yes,key,yes,benton,gallatin,uncoated,uncoated,no,line,no,motter94,821,'\'(6.4-7.3]\'',tabloid,northus,1911,'\'(53.5-58.25]\'',56,0.233,'\'(13.86-15.19]\'',84,'\'(0.53375-0.653125]\'',25,'\'(14.32-17.9]\'',1850,'\'(51.77-55.36]\'','\'(28.28-31.42]\'','\'(3.2-4.8]\'','\'(-inf-0.6]\'','\'(1.86-2.17]\'','\'(0.3-0.6]\'','\'(31.2-34.4]\'',40,'\'(100.595-104.048]\'',100,band
19910422,x779,tvguide,25513,yes,key,yes,benton,gallatin,uncoated,uncoated,no,line,no,motter94,821,'\'(6.4-7.3]\'',tabloid,northus,1910,'\'(53.5-58.25]\'',49,0.2,'\'(13.86-15.19]\'',78,'\'(0.53375-0.653125]\'',20,'\'(14.32-17.9]\'',1900,'\'(44.59-48.18]\'','\'(34.56-37.7]\'','\'(-inf-1.6]\'','\'(-inf-0.6]\'','\'(2.48-2.79]\'','\'(0.6-0.9]\'','\'(31.2-34.4]\'',40,'\'(104.048-107.501]\'',100,band
19910426,t380,modmat,47203,yes,key,yes,benton,gallatin,uncoated,uncoated,no,line,yes,albert70,802,'\'(1.9-2.8]\'',catalog,northus,1910,'\'(48.75-53.5]\'',50,0.2,'\'(15.19-16.52]\'',90,'\'(0.653125-0.7725]\'',50,'\'(-inf-3.58]\'',1420,'\'(58.95-62.54]\'','\'(34.56-37.7]\'','\'(-inf-1.6]\'','\'(-inf-0.6]\'','\'(2.79-inf)\'','\'(1.2-1.5]\'','\'(37.6-40.8]\'',40,'\'(104.048-107.501]\'',100,noband
19910426,f146,modmat,47203,yes,key,yes,benton,gallatin,uncoated,uncoated,no,line,yes,albert70,802,'\'(6.4-7.3]\'',catalog,northus,1910,'\'(48.75-53.5]\'',50,0.2,'\'(15.19-16.52]\'',74,'\'(0.653125-0.7725]\'',58,'\'(3.58-7.16]\'',1420,'\'(58.95-62.54]\'','\'(34.56-37.7]\'','\'(1.6-3.2]\'','\'(-inf-0.6]\'','\'(2.79-inf)\'','\'(0.9-1.2]\'','\'(37.6-40.8]\'',40,'\'(104.048-107.501]\'',100,noband
19910428,x9,toysrus,35871,no,key,no,benton,gallatin,coated,coated,no,line,yes,motter94,824,'\'(8.2-9.1]\'',tabloid,canadian,1911,'\'(34.5-39.25]\'',56,0.233,'\'(15.19-16.52]\'',82,'\'(0.53375-0.653125]\'',28,'\'(3.58-7.16]\'',2100,'\'(55.36-58.95]\'','\'(37.7-40.84]\'','\'(-inf-1.6]\'','\'(-inf-0.6]\'','\'(1.55-1.86]\'','\'(0.3-0.6]\'','\'(-inf-31.2]\'',40,'\'(100.595-104.048]\'',100,noband
19910428,x21,toysrus,35871,no,key,no,benton,gallatin,coated,coated,no,line,yes,motter94,824,'\'(1.9-2.8]\'',tabloid,canadian,1911,'\'(34.5-39.25]\'',56,0.2,'\'(13.86-15.19]\'',80,'\'(0.7725-0.891875]\'',40,'\'(7.16-10.74]\'',2100,'\'(51.77-55.36]\'','\'(34.56-37.7]\'','\'(6.4-8]\'','\'(-inf-0.6]\'','\'(1.55-1.86]\'','\'(0.9-1.2]\'','\'(-inf-31.2]\'',40,'\'(97.142-100.595]\'',100,noband
19910419,x220,ames,37169,no,key,yes,benton,gallatin,coated,coated,no,line,yes,motter94,824,'\'(1.9-2.8]\'',tabloid,canadian,1911,'\'(39.25-44]\'',50,0.2,'\'(15.19-16.52]\'',68,'\'(0.7725-0.891875]\'',30,'\'(-inf-3.58]\'',2400,'\'(55.36-58.95]\'','\'(40.84-43.98]\'','\'(6.4-8]\'','\'(-inf-0.6]\'','\'(2.48-2.79]\'','\'(1.2-1.5]\'','\'(31.2-34.4]\'',40,'\'(100.595-104.048]\'',100,noband
19910419,x147,ames,47169,no,key,yes,benton,gallatin,coated,coated,no,line,yes,motter94,824,'\'(8.2-9.1]\'',tabloid,canadian,1911,'\'(39.25-44]\'',50,0.233,'\'(15.19-16.52]\'',70,'\'(0.53375-0.653125]\'',30,'\'(-inf-3.58]\'',2400,'\'(55.36-58.95]\'','\'(40.84-43.98]\'','\'(6.4-8]\'','\'(-inf-0.6]\'','\'(1.24-1.55]\'','\'(0.3-0.6]\'','\'(31.2-34.4]\'',40,'\'(100.595-104.048]\'',100,noband
19910415,e92,kmart,32360,no,key,yes,benton,gallatin,uncoated,coated,no,line,yes,motter94,827,'\'(1.9-2.8]\'',tabloid,?,1910,?,59,0.233,'\'(13.86-15.19]\'',80,'\'(0.891875-1.01125]\'',20,'\'(3.58-7.16]\'',?,'\'(55.36-58.95]\'','\'(37.7-40.84]\'','\'(-inf-1.6]\'','\'(-inf-0.6]\'','\'(1.86-2.17]\'','\'(2.4-2.7]\'','\'(31.2-34.4]\'',40,'\'(104.048-107.501]\'',100,noband
19910415,e85,kmart,32360,no,key,yes,benton,gallatin,uncoated,coated,no,line,yes,motter94,827,'\'(8.2-9.1]\'',tabloid,?,1911,'\'(34.5-39.25]\'',59,0.233,'\'(15.19-16.52]\'',75,'\'(0.653125-0.7725]\'',20,'\'(3.58-7.16]\'',?,'\'(51.77-55.36]\'','\'(40.84-43.98]\'','\'(-inf-1.6]\'','\'(-inf-0.6]\'','\'(2.48-2.79]\'','\'(1.2-1.5]\'','\'(31.2-34.4]\'',40,'\'(104.048-107.501]\'',100,noband
19910409,f685,bestprod,37822,no,key,yes,benton,gallatin,uncoated,coated,no,line,yes,woodhoe70,816,'\'(8.2-9.1]\'',catalog,northus,1911,'\'(39.25-44]\'',54,0.2,'\'(15.19-16.52]\'',76,'\'(0.414375-0.53375]\'',38,'\'(3.58-7.16]\'',1736,'\'(55.36-58.95]\'','\'(37.7-40.84]\'','\'(-inf-1.6]\'','\'(-inf-0.6]\'','\'(2.48-2.79]\'','\'(1.2-1.5]\'','\'(34.4-37.6]\'',40,'\'(100.595-104.048]\'',100,noband
19910409,f569,bestprod,37822,no,key,yes,benton,gallatin,uncoated,cover,no,line,yes,woodhoe70,816,'\'(1.9-2.8]\'',catalog,northus,1911,'\'(39.25-44]\'',54,0.2,'\'(15.19-16.52]\'',78,'\'(0.414375-0.53375]\'',34,'\'(3.58-7.16]\'',1736,'\'(55.36-58.95]\'','\'(34.56-37.7]\'','\'(-inf-1.6]\'','\'(-inf-0.6]\'','\'(2.48-2.79]\'','\'(0.9-1.2]\'','\'(34.4-37.6]\'',40,'\'(100.595-104.048]\'',100,noband
19910426,x139,hanhouse,37994,yes,key,yes,benton,gallatin,uncoated,uncoated,no,line,no,motter94,821,'\'(1.9-2.8]\'',tabloid,northus,1911,'\'(53.5-58.25]\'',45,0.267,'\'(15.19-16.52]\'',79,'\'(0.53375-0.653125]\'',20,'\'(14.32-17.9]\'',1850,'\'(51.77-55.36]\'','\'(31.42-34.56]\'','\'(3.2-4.8]\'','\'(-inf-0.6]\'','\'(2.48-2.79]\'','\'(0.9-1.2]\'','\'(31.2-34.4]\'',40,'\'(97.142-100.595]\'',100,noband
19910430,x12,tvguide,25519,yes,key,yes,benton,gallatin,uncoated,uncoated,no,line,no,motter94,821,'\'(6.4-7.3]\'',tabloid,northus,1910,'\'(48.75-53.5]\'',64,0.4,'\'(15.19-16.52]\'',82,'\'(0.53375-0.653125]\'',30,'\'(-inf-3.58]\'',1800,'\'(69.72-73.31]\'','\'(28.28-31.42]\'','\'(3.2-4.8]\'','\'(-inf-0.6]\'','\'(2.48-2.79]\'','\'(0.9-1.2]\'','\'(31.2-34.4]\'',40,'\'(100.595-104.048]\'',100,band
19910423,g518,eckerd,35458,no,key,yes,benton,gallatin,coated,coated,no,line,no,woodhoe70,816,'\'(8.2-9.1]\'',tabloid,canadian,1910,'\'(39.25-44]\'',56,0.233,'\'(15.19-16.52]\'',79,'\'(0.414375-0.53375]\'',28,'\'(-inf-3.58]\'',2300,'\'(58.95-62.54]\'','\'(37.7-40.84]\'','\'(-inf-1.6]\'','\'(-inf-0.6]\'','\'(2.48-2.79]\'','\'(1.2-1.5]\'','\'(-inf-31.2]\'',40,'\'(104.048-107.501]\'',100,band
19910605,x116,eckerd,35460,no,key,yes,benton,gallatin,coated,coated,no,line,yes,motter94,824,'\'(1.9-2.8]\'',tabloid,canadian,1910,'\'(44-48.75]\'',54,0.333,'\'(15.19-16.52]\'',76,'\'(0.7725-0.891875]\'',30,'\'(3.58-7.16]\'',2250,'\'(55.36-58.95]\'','\'(37.7-40.84]\'','\'(1.6-3.2]\'','\'(-inf-0.6]\'','\'(2.48-2.79]\'','\'(1.2-1.5]\'','\'(-inf-31.2]\'',40,'\'(104.048-107.501]\'',100,noband
19910604,x818,kmart,37365,no,key,yes,benton,gallatin,uncoated,coated,no,line,yes,motter94,828,'\'(1.9-2.8]\'',tabloid,scandanavian,1910,'\'(44-48.75]\'',68,0.4,'\'(15.19-16.52]\'',80,'\'(0.653125-0.7725]\'',30,'\'(-inf-3.58]\'',2250,'\'(55.36-58.95]\'','\'(40.84-43.98]\'','\'(-inf-1.6]\'','\'(-inf-0.6]\'','\'(1.24-1.55]\'','\'(0.9-1.2]\'','\'(34.4-37.6]\'',40,'\'(104.048-107.501]\'',100,noband
19910604,x346,kmart,37365,no,key,yes,benton,gallatin,uncoated,coated,no,line,yes,motter94,828,'\'(8.2-9.1]\'',tabloid,scandanavian,1910,'\'(44-48.75]\'',68,0.35,'\'(15.19-16.52]\'',80,'\'(0.653125-0.7725]\'',30,'\'(-inf-3.58]\'',2250,'\'(51.77-55.36]\'','\'(47.12-50.26]\'','\'(-inf-1.6]\'','\'(-inf-0.6]\'','\'(1.24-1.55]\'','\'(0.6-0.9]\'','\'(34.4-37.6]\'',40,'\'(104.048-107.501]\'',100,noband
19910605,x103,eckerd,35460,no,key,yes,benton,gallatin,coated,coated,no,line,yes,motter94,824,'\'(8.2-9.1]\'',tabloid,canadian,1910,'\'(44-48.75]\'',54,0.367,'\'(15.19-16.52]\'',74,'\'(0.53375-0.653125]\'',40,'\'(7.16-10.74]\'',2250,'\'(51.77-55.36]\'','\'(34.56-37.7]\'','\'(1.6-3.2]\'','\'(-inf-0.6]\'','\'(2.48-2.79]\'','\'(1.8-2.1]\'','\'(-inf-31.2]\'',40,'\'(104.048-107.501]\'',100,noband
19910603,e74,kmart,37365,no,key,yes,benton,gallatin,uncoated,coated,no,line,no,motter94,827,'\'(1.9-2.8]\'',tabloid,canadian,1911,'\'(34.5-39.25]\'',70,0.333,'\'(13.86-15.19]\'',64,'\'(0.653125-0.7725]\'',28,'\'(-inf-3.58]\'',1500,'\'(55.36-58.95]\'','\'(37.7-40.84]\'','\'(-inf-1.6]\'','\'(-inf-0.6]\'','\'(2.48-2.79]\'','\'(0.9-1.2]\'','\'(37.6-40.8]\'',40,'\'(104.048-107.501]\'',100,noband
19910603,e86,kmart,37365,no,key,yes,benton,gallatin,uncoated,coated,no,line,yes,motter94,827,'\'(8.2-9.1]\'',tabloid,canadian,1911,'\'(34.5-39.25]\'',70,0.4,'\'(13.86-15.19]\'',65,'\'(0.653125-0.7725]\'',25,'\'(3.58-7.16]\'',1500,'\'(51.77-55.36]\'','\'(37.7-40.84]\'','\'(-inf-1.6]\'','\'(-inf-0.6]\'','\'(2.17-2.48]\'','\'(0.9-1.2]\'','\'(37.6-40.8]\'',40,'\'(104.048-107.501]\'',100,noband
19910529,x396,wards,37338,no,key,yes,benton,gallatin,coated,coated,no,line,yes,motter94,824,'\'(1.9-2.8]\'',tabloid,canadian,1911,'\'(44-48.75]\'',60,0.4,'\'(13.86-15.19]\'',74,'\'(0.7725-0.891875]\'',20,'\'(7.16-10.74]\'',1600,'\'(51.77-55.36]\'','\'(34.56-37.7]\'','\'(-inf-1.6]\'','\'(-inf-0.6]\'','\'(1.86-2.17]\'','\'(1.2-1.5]\'','\'(34.4-37.6]\'',40,'\'(107.501-110.954]\'',100,noband
19910524,x155,roses,37758,no,key,yes,?,gallatin,coated,coated,no,line,yes,motter94,828,'\'(8.2-9.1]\'',tabloid,canadian,1910,'\'(39.25-44]\'',62,0.3,'\'(15.19-16.52]\'',84,'\'(0.891875-1.01125]\'',28,'\'(-inf-3.58]\'',2200,'\'(55.36-58.95]\'','\'(40.84-43.98]\'','\'(3.2-4.8]\'','\'(-inf-0.6]\'','\'(2.48-2.79]\'','\'(0.3-0.6]\'','\'(-inf-31.2]\'',40,'\'(104.048-107.501]\'',100,noband
19910524,x29,roses,35758,no,key,yes,benton,gallatin,coated,coated,no,line,yes,motter94,828,'\'(1.9-2.8]\'',tabloid,canadian,1910,'\'(39.25-44]\'',62,0.267,'\'(15.19-16.52]\'',84,'\'(0.891875-1.01125]\'',32,'\'(-inf-3.58]\'',2200,'\'(55.36-58.95]\'','\'(40.84-43.98]\'','\'(3.2-4.8]\'','\'(-inf-0.6]\'','\'(1.24-1.55]\'','\'(0.9-1.2]\'','\'(-inf-31.2]\'',40,'\'(104.048-107.501]\'',100,noband
19910430,g518,eckerd,35458,no,key,yes,benton,gallatin,coated,coated,no,line,yes,woodhoe70,816,'\'(8.2-9.1]\'',tabloid,canadian,1910,'\'(39.25-44]\'',64,0.2,'\'(15.19-16.52]\'',85,'\'(0.891875-1.01125]\'',26,'\'(-inf-3.58]\'',2400,'\'(55.36-58.95]\'','\'(40.84-43.98]\'','\'(-inf-1.6]\'','\'(-inf-0.6]\'','\'(2.48-2.79]\'','\'(0.9-1.2]\'','\'(-inf-31.2]\'',40,'\'(100.595-104.048]\'',100,noband
19910430,g608,eckerd,35458,no,key,yes,benton,gallatin,coated,coated,no,line,yes,woodhoe70,816,'\'(1.9-2.8]\'',tabloid,canadian,1910,'\'(39.25-44]\'',64,0.233,'\'(13.86-15.19]\'',82,'\'(0.653125-0.7725]\'',31,'\'(-inf-3.58]\'',2400,'\'(58.95-62.54]\'','\'(37.7-40.84]\'','\'(1.6-3.2]\'','\'(-inf-0.6]\'','\'(2.48-2.79]\'','\'(0.9-1.2]\'','\'(-inf-31.2]\'',40,'\'(104.048-107.501]\'',100,noband
19910531,m337,modmat,47203,yes,key,yes,benton,gallatin,uncoated,uncoated,no,line,no,albert70,802,'\'(6.4-7.3]\'',catalog,northus,1910,'\'(48.75-53.5]\'',69,0.367,'\'(16.52-17.85]\'',82,'\'(0.653125-0.7725]\'',50,'\'(-inf-3.58]\'',1700,'\'(58.95-62.54]\'','\'(34.56-37.7]\'','\'(-inf-1.6]\'','\'(-inf-0.6]\'','\'(2.79-inf)\'','\'(0.9-1.2]\'','\'(37.6-40.8]\'',40,'\'(104.048-107.501]\'',100,band
19910529,x381,wards,37338,no,key,yes,benton,gallatin,coated,coated,no,line,no,motter94,824,'\'(8.2-9.1]\'',tabloid,canadian,1911,'\'(48.75-53.5]\'',60,0.4,'\'(15.19-16.52]\'',76,'\'(0.53375-0.653125]\'',28,'\'(3.58-7.16]\'',1600,'\'(55.36-58.95]\'','\'(37.7-40.84]\'','\'(-inf-1.6]\'','\'(-inf-0.6]\'','\'(0.93-1.24]\'','\'(0.3-0.6]\'','\'(34.4-37.6]\'',40,'\'(107.501-110.954]\'',100,noband
19910524,j582,hills,37915,no,key,yes,benton,gallatin,coated,coated,no,line,yes,woodhoe70,815,'\'(1.9-2.8]\'',tabloid,?,1910,'\'(48.75-53.5]\'',62,0.4,'\'(15.19-16.52]\'',98,'\'(0.653125-0.7725]\'',25,'\'(7.16-10.74]\'',1750,'\'(44.59-48.18]\'','\'(40.84-43.98]\'','\'(-inf-1.6]\'','\'(-inf-0.6]\'','\'(2.79-inf)\'','\'(1.2-1.5]\'','\'(31.2-34.4]\'',40,'\'(107.501-110.954]\'',100,noband
19910524,j62,hills,37915,no,key,yes,benton,gallatin,coated,coated,no,line,yes,woodhoe70,815,'\'(8.2-9.1]\'',tabloid,?,1911,'\'(48.75-53.5]\'',62,0.4,'\'(13.86-15.19]\'',96,'\'(0.653125-0.7725]\'',26,'\'(10.74-14.32]\'',1950,'\'(48.18-51.77]\'','\'(37.7-40.84]\'','\'(-inf-1.6]\'','\'(-inf-0.6]\'','\'(2.79-inf)\'','\'(0.6-0.9]\'','\'(31.2-34.4]\'',40,'\'(107.501-110.954]\'',100,noband
19910528,f510,modmat,47203,yes,key,yes,benton,gallatin,uncoated,uncoated,no,line,yes,motter70,813,'\'(-inf-1.9]\'',catalog,northus,1910,'\'(48.75-53.5]\'',68,0.367,'\'(12.53-13.86]\'',70,?,?,'\'(17.9-21.48]\'',1700,'\'(44.59-48.18]\'','\'(31.42-34.56]\'','\'(-inf-1.6]\'','\'(-inf-0.6]\'','\'(2.48-2.79]\'','\'(0.9-1.2]\'','\'(37.6-40.8]\'',40,'\'(104.048-107.501]\'',100,band
19910604,y216,kmart,37305,no,key,yes,benton,gallatin,uncoated,coated,no,line,yes,woodhoe70,815,'\'(8.2-9.1]\'',tabloid,scandanavian,1911,'\'(34.5-39.25]\'',68,0.4,'\'(13.86-15.19]\'',90,'\'(0.7725-0.891875]\'',30,'\'(3.58-7.16]\'',1500,'\'(58.95-62.54]\'','\'(31.42-34.56]\'','\'(-inf-1.6]\'','\'(-inf-0.6]\'','\'(2.48-2.79]\'','\'(0.9-1.2]\'','\'(34.4-37.6]\'',40,'\'(104.048-107.501]\'',100,band
19910610,g089,wards,37501,no,key,yes,benton,gallatin,coated,coated,no,line,yes,woodhoe70,816,'\'(1.9-2.8]\'',tabloid,?,1910,?,56,0.3,'\'(15.19-16.52]\'',84,'\'(0.175625-0.295]\'',30,'\'(3.58-7.16]\'',2244,'\'(51.77-55.36]\'','\'(40.84-43.98]\'','\'(4.8-6.4]\'','\'(-inf-0.6]\'','\'(2.79-inf)\'','\'(0.6-0.9]\'','\'(-inf-31.2]\'',40,'\'(107.501-110.954]\'',100,noband
19910610,g572,wards,37501,no,key,yes,benton,gallatin,coated,coated,no,line,yes,woodhoe70,816,'\'(8.2-9.1]\'',tabloid,?,?,'\'(29.75-34.5]\'',56,0.367,'\'(13.86-15.19]\'',79,'\'(0.295-0.414375]\'',28,'\'(3.58-7.16]\'',2244,'\'(51.77-55.36]\'','\'(40.84-43.98]\'','\'(-inf-1.6]\'','\'(-inf-0.6]\'','\'(1.55-1.86]\'','\'(0.3-0.6]\'','\'(-inf-31.2]\'',40,'\'(104.048-107.501]\'',100,noband
19910611,x390,ames,37177,no,key,yes,benton,gallatin,coated,coated,no,line,yes,motter94,828,'\'(1.9-2.8]\'',tabloid,canadian,1910,'\'(39.25-44]\'',56,0.3,'\'(16.52-17.85]\'',82,'\'(0.653125-0.7725]\'',30,'\'(-inf-3.58]\'',2550,'\'(51.77-55.36]\'','\'(47.12-50.26]\'','\'(-inf-1.6]\'','\'(-inf-0.6]\'','\'(1.86-2.17]\'','\'(0.9-1.2]\'','\'(31.2-34.4]\'',40,'\'(100.595-104.048]\'',100,noband
19910611,x831,wards,37177,no,key,yes,benton,gallatin,coated,coated,no,line,yes,motter94,828,'\'(8.2-9.1]\'',tabloid,canadian,1910,'\'(29.75-34.5]\'',56,0.283,'\'(16.52-17.85]\'',72,'\'(0.653125-0.7725]\'',30,'\'(-inf-3.58]\'',2550,'\'(51.77-55.36]\'','\'(47.12-50.26]\'','\'(-inf-1.6]\'','\'(-inf-0.6]\'','\'(1.86-2.17]\'','\'(0.9-1.2]\'','\'(31.2-34.4]\'',40,'\'(100.595-104.048]\'',100,noband
19910614,g78,wards,37501,no,key,yes,benton,gallatin,coated,coated,no,line,yes,woodhoe70,815,'\'(1.9-2.8]\'',tabloid,canadian,1910,'\'(29.75-34.5]\'',69,0.3,'\'(15.19-16.52]\'',98,'\'(0.653125-0.7725]\'',35,'\'(-inf-3.58]\'',2050,'\'(58.95-62.54]\'','\'(34.56-37.7]\'','\'(-inf-1.6]\'','\'(-inf-0.6]\'','\'(2.48-2.79]\'','\'(0.9-1.2]\'','\'(31.2-34.4]\'',40,'\'(97.142-100.595]\'',100,noband
19910614,x158,roses,35759,no,key,yes,benton,gallatin,coated,coated,no,line,yes,motter94,827,'\'(1.9-2.8]\'',tabloid,canadian,1910,'\'(44-48.75]\'',69,0.267,'\'(15.19-16.52]\'',72,'\'(0.653125-0.7725]\'',21,'\'(3.58-7.16]\'',2426,'\'(55.36-58.95]\'','\'(37.7-40.84]\'','\'(-inf-1.6]\'','\'(-inf-0.6]\'','\'(2.79-inf)\'','\'(0.9-1.2]\'','\'(-inf-31.2]\'',40,'\'(100.595-104.048]\'',100,noband
19910614,x804,roses,37579,no,key,yes,benton,gallatin,coated,coated,no,line,yes,motter94,827,'\'(8.2-9.1]\'',tabloid,canadian,1910,'\'(44-48.75]\'',69,0.267,'\'(15.19-16.52]\'',76,'\'(0.653125-0.7725]\'',22,'\'(3.58-7.16]\'',2426,'\'(55.36-58.95]\'','\'(37.7-40.84]\'','\'(-inf-1.6]\'','\'(-inf-0.6]\'','\'(2.48-2.79]\'','\'(0.6-0.9]\'','\'(-inf-31.2]\'',40,'\'(100.595-104.048]\'',100,noband
19910614,g69,wards,37501,no,key,yes,benton,gallatin,coated,coated,no,line,no,woodhoe70,815,'\'(8.2-9.1]\'',tabloid,canadian,1910,'\'(29.75-34.5]\'',69,0.2,'\'(15.19-16.52]\'',94,'\'(0.653125-0.7725]\'',30,'\'(-inf-3.58]\'',2050,'\'(51.77-55.36]\'','\'(40.84-43.98]\'','\'(-inf-1.6]\'','\'(-inf-0.6]\'','\'(2.48-2.79]\'','\'(0.9-1.2]\'','\'(31.2-34.4]\'',40,'\'(97.142-100.595]\'',100,noband
19910627,x820,wards,37502,no,key,yes,benton,gallatin,coated,coated,no,line,no,motter94,824,'\'(1.9-2.8]\'',tabloid,canadian,1910,?,66,0.2,'\'(13.86-15.19]\'',82,'\'(0.7725-0.891875]\'',30,'\'(3.58-7.16]\'',1900,'\'(55.36-58.95]\'','\'(34.56-37.7]\'','\'(4.8-6.4]\'','\'(-inf-0.6]\'','\'(2.48-2.79]\'','\'(0.9-1.2]\'','\'(-inf-31.2]\'',40,'\'(100.595-104.048]\'',100,band
19910626,i343,massey,37938,yes,key,yes,benton,gallatin,uncoated,uncoated,no,line,no,woodhoe70,816,'\'(8.2-9.1]\'',catalog,northus,1910,'\'(44-48.75]\'',65,0.3,'\'(15.19-16.52]\'',78,'\'(0.653125-0.7725]\'',32,'\'(-inf-3.58]\'',1700,'\'(55.36-58.95]\'','\'(37.7-40.84]\'','\'(3.2-4.8]\'','\'(-inf-0.6]\'','\'(2.48-2.79]\'','\'(0.9-1.2]\'','\'(31.2-34.4]\'',40,'\'(104.048-107.501]\'',100,band
19910622,r2,sheplers,35528,yes,key,yes,benton,gallatin,uncoated,uncoated,no,line,yes,woodhoe70,816,'\'(1.9-2.8]\'',spiegel,northus,1910,'\'(39.25-44]\'',68,0.3,'\'(13.86-15.19]\'',88,'\'(0.653125-0.7725]\'',32,'\'(-inf-3.58]\'',1742,'\'(58.95-62.54]\'','\'(37.7-40.84]\'','\'(1.6-3.2]\'','\'(-inf-0.6]\'','\'(2.48-2.79]\'','\'(0.9-1.2]\'','\'(37.6-40.8]\'',40,'\'(100.595-104.048]\'',100,band
19910619,x760,wards,37199,no,key,yes,benton,gallatin,uncoated,coated,no,line,yes,motter94,824,'\'(8.2-9.1]\'',tabloid,canadian,1910,'\'(39.25-44]\'',64,0.2,'\'(15.19-16.52]\'',82,'\'(0.53375-0.653125]\'',30,'\'(-inf-3.58]\'',1900,'\'(55.36-58.95]\'','\'(37.7-40.84]\'','\'(-inf-1.6]\'','\'(-inf-0.6]\'','\'(1.24-1.55]\'','\'(0.6-0.9]\'','\'(-inf-31.2]\'',40,'\'(104.048-107.501]\'',100,band
19910618,i383,childcraft,37003,yes,key,yes,benton,gallatin,uncoated,cover,no,line,yes,woodhoe70,815,'\'(1.9-2.8]\'',catalog,northus,1910,'\'(39.25-44]\'',65,0.267,'\'(15.19-16.52]\'',79,'\'(0.53375-0.653125]\'',30,'\'(-inf-3.58]\'',1500,'\'(58.95-62.54]\'','\'(34.56-37.7]\'','\'(3.2-4.8]\'','\'(-inf-0.6]\'','\'(2.48-2.79]\'','\'(0.9-1.2]\'','\'(37.6-40.8]\'',40,'\'(104.048-107.501]\'',100,band
19910617,t176,hanoverhouse,37990,yes,key,yes,benton,gallatin,uncoated,uncoated,no,line,yes,motter70,813,'\'(-inf-1.9]\'',catalog,northus,1910,'\'(48.75-53.5]\'',66,0.233,'\'(15.19-16.52]\'',87,'\'(0.891875-1.01125]\'',?,'\'(10.74-14.32]\'',1530,'\'(55.36-58.95]\'','\'(31.42-34.56]\'','\'(-inf-1.6]\'','\'(-inf-0.6]\'','\'(2.48-2.79]\'','\'(0.9-1.2]\'','\'(31.2-34.4]\'',40,'\'(97.142-100.595]\'',100,band
19910609,y255,kmart,37365,no,key,yes,benton,gallatin,uncoated,coated,no,line,yes,woodhoe70,815,'\'(8.2-9.1]\'',tabloid,northus,1911,'\'(34.5-39.25]\'',62,0.4,'\'(13.86-15.19]\'',94,'\'(0.891875-1.01125]\'',35,'\'(-inf-3.58]\'',1900,'\'(62.54-66.13]\'','\'(34.56-37.7]\'','\'(-inf-1.6]\'','\'(-inf-0.6]\'','\'(2.48-2.79]\'','\'(0.9-1.2]\'','\'(34.4-37.6]\'',40,'\'(104.048-107.501]\'',100,band
19910609,x253,eckerd,35460,no,key,yes,benton,gallatin,coated,coated,no,line,no,motter94,824,'\'(1.9-2.8]\'',tabloid,canadian,1910,'\'(39.25-44]\'',62,?,'\'(15.19-16.52]\'',80,'\'(0.7725-0.891875]\'',40,'\'(-inf-3.58]\'',2250,'\'(58.95-62.54]\'','\'(34.56-37.7]\'','\'(-inf-1.6]\'','\'(-inf-0.6]\'','\'(2.48-2.79]\'','\'(0.6-0.9]\'','\'(-inf-31.2]\'',40,'\'(107.501-110.954]\'',100,band
19910607,aa11,kmart,37365,no,key,yes,benton,gallatin,uncoated,coated,no,line,yes,motter94,827,'\'(8.2-9.1]\'',tabloid,northus,1910,'\'(39.25-44]\'',58,0.4,'\'(13.86-15.19]\'',76,'\'(0.891875-1.01125]\'',20,'\'(3.58-7.16]\'',2000,'\'(51.77-55.36]\'','\'(37.7-40.84]\'','\'(-inf-1.6]\'','\'(-inf-0.6]\'','\'(2.48-2.79]\'','\'(0.9-1.2]\'','\'(34.4-37.6]\'',40,'\'(100.595-104.048]\'',100,band
19910707,m362,modmat,47204,yes,key,yes,benton,gallatin,coated,coated,no,line,yes,motter70,813,'\'(8.2-9.1]\'',catalog,northus,1910,'\'(48.75-53.5]\'',64,0.233,'\'(17.85-19.18]\'',64,'\'(0.891875-1.01125]\'',?,'\'(-inf-3.58]\'',1300,'\'(58.95-62.54]\'','\'(34.56-37.7]\'','\'(-inf-1.6]\'','\'(-inf-0.6]\'','\'(2.79-inf)\'','\'(0.9-1.2]\'','\'(37.6-40.8]\'',40,'\'(104.048-107.501]\'',100,band
19910707,f26,modmat,47204,yes,key,yes,benton,gallatin,coated,coated,no,line,yes,motter70,813,'\'(9.1-inf)\'',catalog,?,1910,'\'(48.75-53.5]\'',64,0.2,'\'(15.19-16.52]\'',86,'\'(0.653125-0.7725]\'',?,'\'(-inf-3.58]\'',1300,'\'(55.36-58.95]\'','\'(40.84-43.98]\'','\'(-inf-1.6]\'','\'(-inf-0.6]\'','\'(2.48-2.79]\'','\'(0.9-1.2]\'','\'(37.6-40.8]\'',40,'\'(104.048-107.501]\'',100,band
19910629,i820,massey,37938,yes,key,yes,benton,gallatin,uncoated,uncoated,no,line,yes,woodhoe70,816,'\'(1.9-2.8]\'',catalog,canadian,1910,'\'(58.25-63]\'',66,0.2,'\'(13.86-15.19]\'',85,'\'(0.175625-0.295]\'',?,'\'(-inf-3.58]\'',?,'\'(58.95-62.54]\'','\'(37.7-40.84]\'','\'(-inf-1.6]\'','\'(-inf-0.6]\'','\'(2.48-2.79]\'','\'(0.9-1.2]\'','\'(31.2-34.4]\'',40,'\'(104.048-107.501]\'',100,band
19910706,x367,wards,37505,no,key,yes,benton,gallatin,coated,coated,no,line,no,motter94,824,'\'(8.2-9.1]\'',tabloid,canadian,1910,'\'(39.25-44]\'',64,0.233,'\'(15.19-16.52]\'',88,'\'(0.53375-0.653125]\'',24,'\'(3.58-7.16]\'',1835,'\'(55.36-58.95]\'','\'(37.7-40.84]\'','\'(1.6-3.2]\'','\'(-inf-0.6]\'','\'(1.86-2.17]\'','\'(1.2-1.5]\'','\'(-inf-31.2]\'',40,'\'(104.048-107.501]\'',100,noband
19910706,x793,wards,37505,no,key,yes,benton,gallatin,coated,coated,no,line,no,motter94,824,'\'(1.9-2.8]\'',tabloid,canadian,1910,'\'(39.25-44]\'',64,0.2,'\'(15.19-16.52]\'',76,'\'(0.7725-0.891875]\'',23,'\'(3.58-7.16]\'',1835,'\'(58.95-62.54]\'','\'(34.56-37.7]\'','\'(1.6-3.2]\'','\'(-inf-0.6]\'','\'(1.86-2.17]\'','\'(0.6-0.9]\'','\'(-inf-31.2]\'',40,'\'(104.048-107.501]\'',100,noband
19900514,f679,modmat,47103,yes,key,yes,benton,gallatin,uncoated,uncoated,no,line,yes,woodhoe70,816,'\'(8.2-9.1]\'',catalog,northus,1910,'\'(44-48.75]\'',63,0.3,'\'(15.19-16.52]\'',84,'\'(0.414375-0.53375]\'',27,'\'(17.9-21.48]\'',1800,'\'(-inf-44.59]\'','\'(37.7-40.84]\'','\'(4.8-6.4]\'','\'(-inf-0.6]\'','\'(2.48-2.79]\'','\'(-inf-0.3]\'','\'(37.6-40.8]\'',33,'\'(93.689-97.142]\'',100,band
19900509,f242,modmat,47103,yes,key,yes,benton,gallatin,uncoated,uncoated,no,xylol,yes,woodhoe70,816,'\'(8.2-9.1]\'',catalog,northus,1910,'\'(48.75-53.5]\'',50,0.3,'\'(13.86-15.19]\'',84,'\'(0.175625-0.295]\'',24,'\'(17.9-21.48]\'',1500,'\'(-inf-44.59]\'','\'(37.7-40.84]\'','\'(-inf-1.6]\'','\'(-inf-0.6]\'','\'(2.79-inf)\'','\'(0.3-0.6]\'','\'(37.6-40.8]\'',33,'\'(100.595-104.048]\'',100,band
19900511,m260,modmat,47103,yes,key,yes,benton,gallatin,uncoated,uncoated,no,line,yes,motter70,813,'\'(-inf-1.9]\'',catalog,northus,1910,'\'(48.75-53.5]\'',48,0.233,'\'(12.53-13.86]\'',80,'\'(0.891875-1.01125]\'',?,'\'(17.9-21.48]\'',1700,'\'(44.59-48.18]\'','\'(31.42-34.56]\'','\'(-inf-1.6]\'','\'(-inf-0.6]\'','\'(2.48-2.79]\'','\'(0.3-0.6]\'','\'(37.6-40.8]\'',33,'\'(97.142-100.595]\'',100,band
19900518,i331,austads,34402,yes,key,yes,benton,gallatin,uncoated,uncoated,no,xylol,yes,woodhoe70,815,'\'(8.2-9.1]\'',catalog,northus,1911,'\'(48.75-53.5]\'',54,0.5,'\'(15.19-16.52]\'',82,'\'(0.7725-0.891875]\'',22,'\'(14.32-17.9]\'',900,'\'(48.18-51.77]\'','\'(34.56-37.7]\'','\'(-inf-1.6]\'','\'(-inf-0.6]\'','\'(2.48-2.79]\'','\'(0.9-1.2]\'','\'(47.2-50.4]\'',40,'\'(93.689-97.142]\'',100,band
19900414,o21,target,34545,no,key,yes,benton,gallatin,coated,coated,no,line,no,motter94,827,'\'(1.9-2.8]\'',spiegel,canadian,1910,'\'(39.25-44]\'',41,0.233,'\'(13.86-15.19]\'',79,'\'(0.653125-0.7725]\'',20,'\'(-inf-3.58]\'',1530,'\'(58.95-62.54]\'','\'(37.7-40.84]\'','\'(4.8-6.4]\'','\'(-inf-0.6]\'','\'(2.79-inf)\'','\'(1.8-2.1]\'','\'(31.2-34.4]\'',33,'\'(93.689-97.142]\'',100,noband
19900418,j68,wards,36053,no,key,yes,benton,gallatin,coated,coated,no,line,yes,woodhoe70,815,'\'(8.2-9.1]\'',tabloid,canadian,1910,'\'(44-48.75]\'',42,0.233,'\'(13.86-15.19]\'',76,'\'(0.653125-0.7725]\'',30,'\'(-inf-3.58]\'',2220,'\'(55.36-58.95]\'','\'(40.84-43.98]\'','\'(-inf-1.6]\'','\'(-inf-0.6]\'','\'(2.48-2.79]\'','\'(0.9-1.2]\'','\'(-inf-31.2]\'',35,'\'(97.142-100.595]\'',100,noband
19900418,j42,wards,36053,no,key,yes,benton,gallatin,coated,coated,no,line,yes,woodhoe70,815,'\'(1.9-2.8]\'',tabloid,canadian,1910,'\'(44-48.75]\'',42,0.233,'\'(15.19-16.52]\'',84,'\'(0.53375-0.653125]\'',28,'\'(-inf-3.58]\'',2220,'\'(51.77-55.36]\'','\'(43.98-47.12]\'','\'(-inf-1.6]\'','\'(-inf-0.6]\'','\'(2.48-2.79]\'','\'(0.9-1.2]\'','\'(-inf-31.2]\'',35,'\'(97.142-100.595]\'',100,noband
19900606,f331,natlwildlife,36859,yes,key,yes,benton,gallatin,uncoated,uncoated,no,line,yes,albert70,802,'\'(6.4-7.3]\'',catalog,northus,1911,'\'(53.5-58.25]\'',54,0.267,'\'(13.86-15.19]\'',70,'\'(0.53375-0.653125]\'',60,'\'(-inf-3.58]\'',1600,'\'(55.36-58.95]\'','\'(37.7-40.84]\'','\'(-inf-1.6]\'','\'(-inf-0.6]\'','\'(0.93-1.24]\'','\'(0.3-0.6]\'','\'(44-47.2]\'',40,'\'(100.595-104.048]\'',100,noband
19900606,f571,natlwildlife,36859,yes,key,yes,benton,gallatin,uncoated,cover,no,line,no,albert70,802,'\'(1.9-2.8]\'',catalog,northus,1911,'\'(53.5-58.25]\'',54,0.267,'\'(15.19-16.52]\'',80,'\'(0.53375-0.653125]\'',55,'\'(-inf-3.58]\'',1600,'\'(58.95-62.54]\'','\'(34.56-37.7]\'','\'(-inf-1.6]\'','\'(-inf-0.6]\'','\'(2.79-inf)\'','\'(0.3-0.6]\'','\'(44-47.2]\'',40,'\'(100.595-104.048]\'',100,noband
19900507,m93,modmat,47103,no,key,yes,benton,gallatin,coated,coated,no,line,yes,motter70,813,'\'(8.2-9.1]\'',catalog,northus,1910,'\'(39.25-44]\'',54,0.233,'\'(15.19-16.52]\'',89,'\'(0.891875-1.01125]\'',?,'\'(-inf-3.58]\'',1700,'\'(55.36-58.95]\'','\'(37.7-40.84]\'','\'(-inf-1.6]\'','\'(-inf-0.6]\'','\'(2.48-2.79]\'','\'(0.3-0.6]\'','\'(37.6-40.8]\'',33,'\'(100.595-104.048]\'',100,noband
19900409,g467,eckerd,34683,no,key,yes,benton,gallatin,coated,coated,no,line,yes,woodhoe70,815,'\'(1.9-2.8]\'',tabloid,northus,1910,'\'(39.25-44]\'',38,0.3,'\'(15.19-16.52]\'',92,'\'(0.53375-0.653125]\'',25,'\'(-inf-3.58]\'',1900,'\'(51.77-55.36]\'','\'(43.98-47.12]\'','\'(-inf-1.6]\'','\'(-inf-0.6]\'','\'(2.48-2.79]\'','\'(0.9-1.2]\'','\'(-inf-31.2]\'',33,'\'(97.142-100.595]\'',100,noband
19900524,f227,jamesway,36648,no,key,yes,benton,gallatin,uncoated,coated,no,line,yes,woodhoe70,815,'\'(-inf-1.9]\'',catalog,canadian,1911,'\'(48.75-53.5]\'',60,0.3,'\'(13.86-15.19]\'',75,'\'(0.53375-0.653125]\'',33,'\'(-inf-3.58]\'',2000,'\'(62.54-66.13]\'','\'(34.56-37.7]\'','\'(-inf-1.6]\'','\'(-inf-0.6]\'','\'(-inf-0.31]\'','\'(-inf-0.3]\'','\'(34.4-37.6]\'',40,'\'(93.689-97.142]\'',100,band
19900425,g496,burdines,34664,yes,key,yes,benton,gallatin,uncoated,uncoated,no,xylol,yes,woodhoe70,816,'\'(8.2-9.1]\'',tabloid,northus,1910,'\'(44-48.75]\'',49,0.2,'\'(15.19-16.52]\'',72,'\'(0.295-0.414375]\'',38,'\'(14.32-17.9]\'',1650,'\'(48.18-51.77]\'','\'(34.56-37.7]\'','\'(-inf-1.6]\'','\'(-inf-0.6]\'','\'(2.48-2.79]\'','\'(-inf-0.3]\'','\'(37.6-40.8]\'',33,'\'(93.689-97.142]\'',100,band
19900418,f329,exxon,36858,yes,key,yes,benton,gallatin,uncoated,uncoated,no,line,yes,motter70,813,'\'(4.6-5.5]\'',catalog,northus,1910,'\'(58.25-63]\'',43,0.367,'\'(13.86-15.19]\'',94,'\'(0.891875-1.01125]\'',?,'\'(7.16-10.74]\'',1500,'\'(51.77-55.36]\'','\'(37.7-40.84]\'','\'(-inf-1.6]\'','\'(3.6-4.2]\'','\'(2.48-2.79]\'','\'(0.9-1.2]\'','\'(37.6-40.8]\'',35,'\'(97.142-100.595]\'',100,band
19900409,x203,tvguide,25416,yes,key,yes,benton,gallatin,uncoated,uncoated,no,line,no,motter94,821,'\'(6.4-7.3]\'',tabloid,northus,1911,'\'(44-48.75]\'',41,0.333,'\'(17.85-19.18]\'',74,'\'(0.414375-0.53375]\'',30,'\'(14.32-17.9]\'',1900,'\'(-inf-44.59]\'','\'(37.7-40.84]\'','\'(1.6-3.2]\'','\'(-inf-0.6]\'','\'(2.48-2.79]\'','\'(0.9-1.2]\'','\'(37.6-40.8]\'',33,'\'(97.142-100.595]\'',100,band
19900417,t313,exxon,36858,yes,key,yes,benton,gallatin,uncoated,uncoated,no,line,yes,albert70,802,'\'(1.9-2.8]\'',catalog,northus,1910,'\'(44-48.75]\'',52,0.267,'\'(13.86-15.19]\'',98,'\'(0.653125-0.7725]\'',55,'\'(10.74-14.32]\'',1600,'\'(51.77-55.36]\'','\'(34.56-37.7]\'','\'(-inf-1.6]\'','\'(-inf-0.6]\'','\'(2.79-inf)\'','\'(0.9-1.2]\'','\'(37.6-40.8]\'',33,'\'(97.142-100.595]\'',100,band
19900606,r4,target,34546,no,key,yes,benton,gallatin,coated,coated,no,line,yes,woodhoe70,816,'\'(8.2-9.1]\'',spiegel,canadian,1911,'\'(34.5-39.25]\'',54,0.3,'\'(13.86-15.19]\'',80,'\'(0.891875-1.01125]\'',20,'\'(10.74-14.32]\'',2400,'\'(51.77-55.36]\'','\'(34.56-37.7]\'','\'(-inf-1.6]\'','\'(-inf-0.6]\'','\'(2.48-2.79]\'','\'(0.3-0.6]\'','\'(-inf-31.2]\'',40,'\'(100.595-104.048]\'',100,noband
19900606,r15,target,34546,no,key,yes,benton,gallatin,coated,coated,no,line,yes,woodhoe70,816,'\'(1.9-2.8]\'',spiegel,canadian,1911,'\'(48.75-53.5]\'',54,0.267,'\'(13.86-15.19]\'',82,?,32,'\'(7.16-10.74]\'',2400,'\'(51.77-55.36]\'','\'(34.56-37.7]\'','\'(-inf-1.6]\'','\'(-inf-0.6]\'','\'(2.48-2.79]\'','\'(0.3-0.6]\'','\'(-inf-31.2]\'',40,'\'(97.142-100.595]\'',100,noband
19900517,x400,wards,36054,no,key,yes,benton,gallatin,coated,coated,no,line,yes,motter94,827,'\'(1.9-2.8]\'',tabloid,canadian,1910,'\'(44-48.75]\'',55,0.3,'\'(13.86-15.19]\'',75,'\'(0.653125-0.7725]\'',25,'\'(-inf-3.58]\'',2300,'\'(58.95-62.54]\'','\'(37.7-40.84]\'','\'(-inf-1.6]\'','\'(-inf-0.6]\'','\'(1.86-2.17]\'','\'(2.1-2.4]\'','\'(-inf-31.2]\'',33,'\'(93.689-97.142]\'',100,noband
19900426,o6,target,34545,no,key,yes,benton,gallatin,uncoated,coated,no,line,no,motter94,827,'\'(8.2-9.1]\'',tabloid,canadian,1910,'\'(39.25-44]\'',48,0.3,'\'(13.86-15.19]\'',82,'\'(0.891875-1.01125]\'',35,'\'(-inf-3.58]\'',1720,'\'(58.95-62.54]\'','\'(37.7-40.84]\'','\'(-inf-1.6]\'','\'(-inf-0.6]\'','\'(1.24-1.55]\'','\'(1.2-1.5]\'','\'(31.2-34.4]\'',33,'\'(97.142-100.595]\'',100,noband
19900426,o14,target,34545,no,key,yes,benton,gallatin,uncoated,coated,no,line,no,motter94,827,'\'(1.9-2.8]\'',tabloid,canadian,1910,'\'(39.25-44]\'',48,0.333,'\'(13.86-15.19]\'',75,'\'(0.891875-1.01125]\'',30,'\'(-inf-3.58]\'',1720,'\'(58.95-62.54]\'','\'(37.7-40.84]\'','\'(-inf-1.6]\'','\'(-inf-0.6]\'','\'(2.48-2.79]\'','\'(2.7-inf)\'','\'(31.2-34.4]\'',33,'\'(100.595-104.048]\'',100,noband
19900505,t244,modmat,47103,yes,key,yes,benton,gallatin,uncoated,uncoated,no,line,no,albert70,802,'\'(6.4-7.3]\'',catalog,northus,1910,'\'(48.75-53.5]\'',52,0.2,'\'(13.86-15.19]\'',80,'\'(0.653125-0.7725]\'',60,'\'(3.58-7.16]\'',1700,'\'(51.77-55.36]\'','\'(37.7-40.84]\'','\'(-inf-1.6]\'','\'(-inf-0.6]\'','\'(2.48-2.79]\'','\'(0.9-1.2]\'','\'(37.6-40.8]\'',33,'\'(97.142-100.595]\'',100,band
19900507,m260,modmat,47103,yes,key,yes,benton,gallatin,uncoated,uncoated,no,line,yes,motter70,813,'\'(-inf-1.9]\'',catalog,northus,1910,'\'(53.5-58.25]\'',54,0.233,'\'(12.53-13.86]\'',79,'\'(0.891875-1.01125]\'',?,'\'(17.9-21.48]\'',1700,'\'(44.59-48.18]\'','\'(31.42-34.56]\'','\'(-inf-1.6]\'','\'(-inf-0.6]\'','\'(1.86-2.17]\'','\'(0.3-0.6]\'','\'(37.6-40.8]\'',33,'\'(97.142-100.595]\'',100,noband
19900507,t383,modmat,47103,no,key,yes,benton,gallatin,coated,coated,no,line,yes,motter70,813,'\'(9.1-inf)\'',catalog,northus,1910,'\'(39.25-44]\'',54,0.267,'\'(13.86-15.19]\'',87,'\'(0.891875-1.01125]\'',?,'\'(3.58-7.16]\'',1700,'\'(55.36-58.95]\'','\'(37.7-40.84]\'','\'(-inf-1.6]\'','\'(-inf-0.6]\'','\'(2.48-2.79]\'','\'(0.9-1.2]\'','\'(37.6-40.8]\'',33,'\'(93.689-97.142]\'',100,noband
19900507,t78,modmat,47103,yes,key,yes,benton,gallatin,uncoated,uncoated,no,line,yes,albert70,802,'\'(1.9-2.8]\'',catalog,northus,1910,'\'(67.75-inf)\'',54,0.2,'\'(13.86-15.19]\'',82,'\'(0.653125-0.7725]\'',50,'\'(-inf-3.58]\'',1900,'\'(55.36-58.95]\'','\'(40.84-43.98]\'','\'(-inf-1.6]\'','\'(-inf-0.6]\'','\'(2.79-inf)\'','\'(0.9-1.2]\'','\'(37.6-40.8]\'',33,'\'(97.142-100.595]\'',100,noband
19900507,m4,modmat,47103,yes,key,yes,benton,gallatin,uncoated,uncoated,no,line,yes,motter70,813,'\'(4.6-5.5]\'',catalog,northus,1910,'\'(44-48.75]\'',54,0.2,'\'(15.19-16.52]\'',69,'\'(0.891875-1.01125]\'',?,'\'(-inf-3.58]\'',1700,'\'(55.36-58.95]\'','\'(40.84-43.98]\'','\'(-inf-1.6]\'','\'(-inf-0.6]\'','\'(2.48-2.79]\'','\'(0.9-1.2]\'','\'(37.6-40.8]\'',30,'\'(100.595-104.048]\'',100,noband
19900510,f672,modmat,47103,yes,key,yes,benton,gallatin,uncoated,uncoated,no,line,yes,woodhoe70,816,'\'(1.9-2.8]\'',catalog,northus,1910,'\'(58.25-63]\'',50,0.3,'\'(13.86-15.19]\'',72,'\'(0.653125-0.7725]\'',30,'\'(14.32-17.9]\'',1700,'\'(-inf-44.59]\'','\'(37.7-40.84]\'','\'(-inf-1.6]\'','\'(-inf-0.6]\'','\'(2.79-inf)\'','\'(0.3-0.6]\'','\'(37.6-40.8]\'',33,'\'(97.142-100.595]\'',100,band
19900517,x776,toysrus,34752,no,key,no,benton,gallatin,coated,coated,yes,line,yes,motter94,824,'\'(8.2-9.1]\'',tabloid,canadian,1910,'\'(48.75-53.5]\'',48,0.333,'\'(15.19-16.52]\'',70,?,30,'\'(-inf-3.58]\'',1900,'\'(55.36-58.95]\'','\'(40.84-43.98]\'','\'(4.8-6.4]\'','\'(-inf-0.6]\'','\'(2.48-2.79]\'','\'(0.9-1.2]\'','\'(-inf-31.2]\'',33,'\'(97.142-100.595]\'',100,noband
19900517,x713,toysrus,34752,no,key,no,benton,gallatin,coated,coated,no,line,yes,motter94,824,'\'(1.9-2.8]\'',tabloid,northus,1910,'\'(48.75-53.5]\'',48,0.233,'\'(15.19-16.52]\'',68,'\'(0.7725-0.891875]\'',30,'\'(-inf-3.58]\'',1900,'\'(55.36-58.95]\'','\'(40.84-43.98]\'','\'(9.6-11.2]\'','\'(-inf-0.6]\'','\'(1.24-1.55]\'','\'(0.9-1.2]\'','\'(-inf-31.2]\'',33,'\'(97.142-100.595]\'',100,noband
19900507,m432,homeshopping,36928,no,key,yes,benton,gallatin,coated,coated,no,line,yes,woodhoe70,815,'\'(8.2-9.1]\'',catalog,canadian,1910,'\'(39.25-44]\'',54,0.233,'\'(13.86-15.19]\'',80,'\'(0.653125-0.7725]\'',28,'\'(-inf-3.58]\'',1800,'\'(55.36-58.95]\'','\'(40.84-43.98]\'','\'(-inf-1.6]\'','\'(-inf-0.6]\'','\'(2.48-2.79]\'','\'(0.9-1.2]\'','\'(-inf-31.2]\'',33,'\'(97.142-100.595]\'',100,noband
19900507,m257,homeshopping,36928,no,key,yes,benton,gallatin,coated,coated,no,line,yes,woodhoe70,815,'\'(1.9-2.8]\'',catalog,canadian,1910,'\'(39.25-44]\'',54,0.3,'\'(13.86-15.19]\'',88,'\'(0.653125-0.7725]\'',28,'\'(-inf-3.58]\'',1800,'\'(55.36-58.95]\'','\'(40.84-43.98]\'','\'(-inf-1.6]\'','\'(-inf-0.6]\'','\'(2.48-2.79]\'','\'(0.9-1.2]\'','\'(-inf-31.2]\'',33,'\'(97.142-100.595]\'',100,noband
19900606,x138,tvguide,25424,yes,key,yes,benton,gallatin,uncoated,uncoated,no,line,no,motter94,821,'\'(6.4-7.3]\'',tabloid,northus,1911,'\'(39.25-44]\'',54,0.333,'\'(13.86-15.19]\'',80,?,20,'\'(21.48-25.06]\'',1850,'\'(-inf-44.59]\'','\'(31.42-34.56]\'','\'(1.6-3.2]\'','\'(-inf-0.6]\'','\'(2.48-2.79]\'','\'(0.6-0.9]\'','\'(37.6-40.8]\'',40,'\'(100.595-104.048]\'',100,noband
19900603,f670,ntlwildlife,36859,yes,key,yes,benton,gallatin,uncoated,cover,no,line,no,albert70,802,'\'(1.9-2.8]\'',catalog,northus,?,'\'(48.75-53.5]\'',65,?,'\'(16.52-17.85]\'',100,'\'(0.53375-0.653125]\'',52,'\'(3.58-7.16]\'',1650,'\'(55.36-58.95]\'','\'(37.7-40.84]\'','\'(-inf-1.6]\'','\'(-inf-0.6]\'','\'(2.79-inf)\'','\'(0.3-0.6]\'','\'(44-47.2]\'',?,?,100,band
19900617,x787,hanoverhouse,34093,yes,key,yes,benton,gallatin,uncoated,cover,no,line,no,motter94,821,'\'(6.4-7.3]\'',tabloid,northus,1910,'\'(48.75-53.5]\'',62,0.433,'\'(13.86-15.19]\'',95,'\'(0.653125-0.7725]\'',20,'\'(-inf-3.58]\'',1950,'\'(55.36-58.95]\'','\'(40.84-43.98]\'','\'(-inf-1.6]\'','\'(-inf-0.6]\'','\'(1.86-2.17]\'','\'(0.9-1.2]\'','\'(37.6-40.8]\'',35,'\'(97.142-100.595]\'',100,band
19900602,f590,natlwildlife,36859,yes,key,yes,benton,gallatin,uncoated,uncoated,no,line,no,albert70,802,'\'(1.9-2.8]\'',catalog,northus,1910,'\'(48.75-53.5]\'',56,0.2,'\'(13.86-15.19]\'',105,'\'(0.653125-0.7725]\'',70,'\'(-inf-3.58]\'',1600,'\'(55.36-58.95]\'','\'(43.98-47.12]\'','\'(-inf-1.6]\'','\'(-inf-0.6]\'','\'(2.79-inf)\'','\'(0.9-1.2]\'','\'(44-47.2]\'',35,'\'(97.142-100.595]\'',100,band
19900608,f19,jamesway,36649,no,key,yes,benton,gallatin,coated,coated,no,line,?,motter70,813,'\'(5.5-6.4]\'',catalog,scandanavian,1911,'\'(44-48.75]\'',62,0.333,'\'(13.86-15.19]\'',84,?,?,'\'(3.58-7.16]\'',?,'\'(55.36-58.95]\'','\'(37.7-40.84]\'','\'(-inf-1.6]\'','\'(-inf-0.6]\'','\'(2.48-2.79]\'','\'(0.9-1.2]\'','\'(34.4-37.6]\'',40,'\'(93.689-97.142]\'',100,noband
19900608,f89,jamesway,36649,no,key,yes,benton,gallatin,coated,coated,no,line,?,motter70,813,'\'(-inf-1.9]\'',catalog,scandanavian,1911,'\'(44-48.75]\'',62,?,'\'(13.86-15.19]\'',80,?,?,'\'(3.58-7.16]\'',?,'\'(55.36-58.95]\'','\'(37.7-40.84]\'','\'(-inf-1.6]\'','\'(-inf-0.6]\'','\'(2.48-2.79]\'','\'(0.9-1.2]\'','\'(34.4-37.6]\'',40,'\'(93.689-97.142]\'',100,noband
19900615,r17,target,34547,no,key,yes,benton,gallatin,coated,coated,no,line,yes,woodhoe70,815,'\'(8.2-9.1]\'',spiegel,canadian,1910,'\'(29.75-34.5]\'',58,0.433,'\'(15.19-16.52]\'',81,'\'(0.53375-0.653125]\'',30,'\'(-inf-3.58]\'',2150,'\'(58.95-62.54]\'','\'(34.56-37.7]\'','\'(9.6-11.2]\'','\'(-inf-0.6]\'','\'(2.48-2.79]\'','\'(0.9-1.2]\'','\'(-inf-31.2]\'',35,'\'(86.783-90.236]\'',100,noband
19900615,r29,target,34547,no,key,yes,benton,gallatin,coated,coated,no,line,yes,woodhoe70,815,'\'(1.9-2.8]\'',spiegel,canadian,1910,'\'(29.75-34.5]\'',58,0.333,'\'(15.19-16.52]\'',78,'\'(0.53375-0.653125]\'',30,'\'(-inf-3.58]\'',2150,'\'(55.36-58.95]\'','\'(40.84-43.98]\'','\'(9.6-11.2]\'','\'(-inf-0.6]\'','\'(2.48-2.79]\'','\'(0.9-1.2]\'','\'(-inf-31.2]\'',35,'\'(86.783-90.236]\'',100,noband
19900612,x423,wards,36894,no,key,yes,benton,gallatin,coated,coated,no,line,yes,motter94,824,'\'(1.9-2.8]\'',tabloid,canadian,1910,'\'(29.75-34.5]\'',51,0.3,'\'(15.19-16.52]\'',70,'\'(0.7725-0.891875]\'',20,'\'(-inf-3.58]\'',2250,'\'(55.36-58.95]\'','\'(40.84-43.98]\'','\'(-inf-1.6]\'','\'(-inf-0.6]\'','\'(1.24-1.55]\'','\'(0.3-0.6]\'','\'(-inf-31.2]\'',35,'\'(100.595-104.048]\'',100,noband
19900612,x414,wards,36894,no,key,yes,benton,gallatin,coated,coated,yes,line,yes,motter94,824,'\'(8.2-9.1]\'',tabloid,canadian,1910,'\'(29.75-34.5]\'',51,0.333,'\'(15.19-16.52]\'',76,'\'(0.7725-0.891875]\'',25,'\'(17.9-21.48]\'',2250,'\'(-inf-44.59]\'','\'(37.7-40.84]\'','\'(1.6-3.2]\'','\'(-inf-0.6]\'','\'(0.93-1.24]\'','\'(0.3-0.6]\'','\'(-inf-31.2]\'',35,'\'(100.595-104.048]\'',100,noband
19900615,x84,wards,36057,no,key,yes,benton,gallatin,coated,coated,no,line,yes,motter94,827,'\'(8.2-9.1]\'',tabloid,canadian,1910,'\'(29.75-34.5]\'',58,0.467,'\'(13.86-15.19]\'',98,'\'(0.653125-0.7725]\'',30,'\'(-inf-3.58]\'',2300,'\'(55.36-58.95]\'','\'(40.84-43.98]\'','\'(4.8-6.4]\'','\'(-inf-0.6]\'','\'(2.17-2.48]\'','\'(0.9-1.2]\'','\'(-inf-31.2]\'',35,'\'(97.142-100.595]\'',100,noband
19900615,x96,wards,36057,no,key,yes,benton,gallatin,coated,coated,no,line,yes,motter94,827,'\'(1.9-2.8]\'',tabloid,canadian,1910,'\'(29.75-34.5]\'',58,0.467,'\'(13.86-15.19]\'',96,'\'(0.653125-0.7725]\'',30,'\'(-inf-3.58]\'',2300,'\'(55.36-58.95]\'','\'(40.84-43.98]\'','\'(4.8-6.4]\'','\'(-inf-0.6]\'','\'(2.79-inf)\'','\'(0.6-0.9]\'','\'(-inf-31.2]\'',35,'\'(97.142-100.595]\'',100,noband
19900606,g407,childworld,36024,yes,key,yes,benton,gallatin,coated,uncoated,no,line,no,woodhoe70,815,'\'(8.2-9.1]\'',tabloid,canadian,1910,'\'(48.75-53.5]\'',54,0.433,'\'(15.19-16.52]\'',90,'\'(0.653125-0.7725]\'',38,'\'(-inf-3.58]\'',1800,'\'(58.95-62.54]\'','\'(37.7-40.84]\'','\'(-inf-1.6]\'','\'(-inf-0.6]\'','\'(2.79-inf)\'','\'(0.9-1.2]\'','\'(31.2-34.4]\'',35,'\'(97.142-100.595]\'',100,noband
19900606,g150,childworld,36024,yes,key,yes,benton,gallatin,coated,uncoated,no,line,no,woodhoe70,815,'\'(1.9-2.8]\'',tabloid,canadian,1910,'\'(53.5-58.25]\'',54,0.233,'\'(13.86-15.19]\'',82,'\'(0.653125-0.7725]\'',38,'\'(-inf-3.58]\'',1800,'\'(55.36-58.95]\'','\'(40.84-43.98]\'','\'(-inf-1.6]\'','\'(-inf-0.6]\'','\'(1.86-2.17]\'','\'(0.9-1.2]\'','\'(31.2-34.4]\'',35,'\'(97.142-100.595]\'',100,noband
19900606,x777,tvguide,25424,yes,key,yes,benton,gallatin,uncoated,uncoated,no,xylol,yes,motter94,821,'\'(1.9-2.8]\'',tabloid,northus,?,'\'(39.25-44]\'',54,?,'\'(13.86-15.19]\'',85,?,20,'\'(21.48-25.06]\'',1850,'\'(-inf-44.59]\'','\'(34.56-37.7]\'','\'(-inf-1.6]\'','\'(-inf-0.6]\'','\'(2.48-2.79]\'','\'(0.6-0.9]\'','\'(37.6-40.8]\'',?,?,100,noband
19900614,b6,downs,34397,yes,key,yes,benton,gallatin,uncoated,uncoated,no,line,yes,motter70,813,'\'(-inf-1.9]\'',catalog,mideuropean,1910,'\'(48.75-53.5]\'',53,0.3,'\'(15.19-16.52]\'',65,'\'(0.653125-0.7725]\'',?,'\'(14.32-17.9]\'',1300,'\'(48.18-51.77]\'','\'(34.56-37.7]\'','\'(-inf-1.6]\'','\'(-inf-0.6]\'','\'(2.48-2.79]\'','\'(0.9-1.2]\'','\'(-inf-31.2]\'',35,'\'(90.236-93.689]\'',100,noband
19900614,f85,downs,34397,yes,key,yes,benton,gallatin,uncoated,uncoated,no,line,yes,motter70,813,'\'(5.5-6.4]\'',catalog,mideuropean,1910,'\'(48.75-53.5]\'',53,0.3,'\'(15.19-16.52]\'',90,'\'(0.653125-0.7725]\'',?,'\'(10.74-14.32]\'',1300,'\'(48.18-51.77]\'','\'(34.56-37.7]\'','\'(-inf-1.6]\'','\'(-inf-0.6]\'','\'(2.48-2.79]\'','\'(0.6-0.9]\'','\'(-inf-31.2]\'',35,'\'(97.142-100.595]\'',100,noband
19900621,i301,global,36846,yes,key,yes,benton,gallatin,uncoated,cover,no,line,yes,albert70,802,'\'(6.4-7.3]\'',catalog,northus,1910,'\'(48.75-53.5]\'',59,0.367,'\'(12.53-13.86]\'',92,'\'(0.53375-0.653125]\'',49,'\'(-inf-3.58]\'',1300,'\'(55.36-58.95]\'','\'(40.84-43.98]\'','\'(-inf-1.6]\'','\'(-inf-0.6]\'','\'(2.79-inf)\'','\'(0.9-1.2]\'','\'(37.6-40.8]\'',35,'\'(97.142-100.595]\'',100,band
19900622,f135,casualliving,38025,yes,key,yes,benton,gallatin,uncoated,uncoated,no,line,no,woodhoe70,815,'\'(8.2-9.1]\'',catalog,northus,1910,'\'(53.5-58.25]\'',55,0.333,'\'(13.86-15.19]\'',86,'\'(0.653125-0.7725]\'',30,'\'(10.74-14.32]\'',1700,'\'(48.18-51.77]\'','\'(34.56-37.7]\'','\'(-inf-1.6]\'','\'(-inf-0.6]\'','\'(2.79-inf)\'','\'(0.9-1.2]\'','\'(31.2-34.4]\'',35,'\'(97.142-100.595]\'',100,noband
19900622,t178,casualliving,38025,yes,key,yes,benton,gallatin,uncoated,uncoated,no,line,no,woodhoe70,815,'\'(1.9-2.8]\'',catalog,northus,1910,'\'(53.5-58.25]\'',55,0.3,'\'(12.53-13.86]\'',86,'\'(0.653125-0.7725]\'',28,'\'(10.74-14.32]\'',1700,'\'(48.18-51.77]\'','\'(34.56-37.7]\'','\'(-inf-1.6]\'','\'(-inf-0.6]\'','\'(2.79-inf)\'','\'(0.6-0.9]\'','\'(31.2-34.4]\'',35,'\'(97.142-100.595]\'',100,noband
19900611,f257,campingworld,36874,?,key,yes,benton,gallatin,coated,coated,no,line,yes,woodhoe70,815,'\'(8.2-9.1]\'',catalog,canadian,?,?,60,?,'\'(15.19-16.52]\'',80,?,30,'\'(10.74-14.32]\'',1750,'\'(51.77-55.36]\'','\'(31.42-34.56]\'','\'(-inf-1.6]\'','\'(-inf-0.6]\'','\'(2.48-2.79]\'','\'(0.9-1.2]\'','\'(31.2-34.4]\'',?,?,100,noband
19900611,f170,campingworld,37874,?,key,yes,benton,gallatin,coated,coated,no,line,yes,woodhoe70,815,'\'(1.9-2.8]\'',catalog,canadian,?,?,60,?,'\'(13.86-15.19]\'',78,'\'(0.53375-0.653125]\'',34,'\'(14.32-17.9]\'',1750,'\'(48.18-51.77]\'','\'(34.56-37.7]\'','\'(-inf-1.6]\'','\'(-inf-0.6]\'','\'(2.48-2.79]\'','\'(0.9-1.2]\'','\'(31.2-34.4]\'',?,?,100,noband
19900622,f77,childcraft,36911,yes,key,yes,benton,gallatin,uncoated,cover,no,line,no,motter70,813,'\'(5.5-6.4]\'',catalog,northus,1910,'\'(48.75-53.5]\'',59,0.4,'\'(13.86-15.19]\'',90,'\'(0.653125-0.7725]\'',?,'\'(-inf-3.58]\'',1500,'\'(55.36-58.95]\'','\'(40.84-43.98]\'','\'(-inf-1.6]\'','\'(-inf-0.6]\'','\'(2.48-2.79]\'','\'(0.9-1.2]\'','\'(37.6-40.8]\'',35,'\'(97.142-100.595]\'',100,band
19900626,x95,tvguide,25427,yes,key,yes,benton,gallatin,uncoated,uncoated,no,line,no,motter94,821,'\'(6.4-7.3]\'',tabloid,northus,1910,'\'(53.5-58.25]\'',49,0.233,'\'(15.19-16.52]\'',80,'\'(0.891875-1.01125]\'',30,'\'(32.22-inf)\'',1950,'\'(-inf-44.59]\'','\'(-inf-25.14]\'','\'(-inf-1.6]\'','\'(-inf-0.6]\'','\'(2.48-2.79]\'','\'(0.9-1.2]\'','\'(37.6-40.8]\'',37,'\'(97.142-100.595]\'',100,band
19900625,m254,oldvillageshop,34092,yes,key,yes,benton,gallatin,uncoated,uncoated,no,line,yes,woodhoe70,815,'\'(1.9-2.8]\'',catalog,?,1910,'\'(63-67.75]\'',49,0.333,'\'(12.53-13.86]\'',82,'\'(0.53375-0.653125]\'',30,'\'(-inf-3.58]\'',1350,'\'(66.13-69.72]\'','\'(31.42-34.56]\'','\'(-inf-1.6]\'','\'(-inf-0.6]\'','\'(2.48-2.79]\'','\'(0.9-1.2]\'','\'(37.6-40.8]\'',37,'\'(100.595-104.048]\'',100,band
19900622,i347,globalequp,36846,no,key,yes,benton,gallatin,uncoated,uncoated,no,line,no,albert70,802,'\'(1.9-2.8]\'',catalog,northus,1910,'\'(63-67.75]\'',65,0.4,'\'(13.86-15.19]\'',100,'\'(0.653125-0.7725]\'',40,'\'(3.58-7.16]\'',1200,'\'(55.36-58.95]\'','\'(34.56-37.7]\'','\'(-inf-1.6]\'','\'(-inf-0.6]\'','\'(2.48-2.79]\'','\'(0.9-1.2]\'','\'(37.6-40.8]\'',35,'\'(97.142-100.595]\'',100,band
19900625,x116,wards,36058,no,key,yes,benton,gallatin,coated,coated,no,line,?,motter94,824,'\'(5.5-6.4]\'',tabloid,canadian,1911,'\'(48.75-53.5]\'',58,0.3,'\'(15.19-16.52]\'',?,'\'(0.7725-0.891875]\'',24,'\'(-inf-3.58]\'',2200,'\'(55.36-58.95]\'','\'(40.84-43.98]\'','\'(-inf-1.6]\'','\'(-inf-0.6]\'','\'(0.93-1.24]\'','\'(0.3-0.6]\'','\'(-inf-31.2]\'',42,'\'(93.689-97.142]\'',100,noband
19900625,m45,oldvillageshop,34092,yes,key,yes,benton,gallatin,uncoated,uncoated,no,line,no,woodhoe70,815,'\'(8.2-9.1]\'',catalog,?,1910,'\'(63-67.75]\'',58,0.4,'\'(13.86-15.19]\'',74,'\'(0.53375-0.653125]\'',32,'\'(-inf-3.58]\'',1800,'\'(55.36-58.95]\'','\'(40.84-43.98]\'','\'(-inf-1.6]\'','\'(-inf-0.6]\'','\'(2.48-2.79]\'','\'(0.9-1.2]\'','\'(37.6-40.8]\'',37,'\'(100.595-104.048]\'',100,band
19900625,x273,wards,36058,no,key,yes,benton,gallatin,coated,coated,no,line,?,motter94,824,'\'(1.9-2.8]\'',tabloid,canadian,1911,'\'(48.75-53.5]\'',58,0.333,'\'(15.19-16.52]\'',75,'\'(0.7725-0.891875]\'',24,'\'(-inf-3.58]\'',2200,'\'(55.36-58.95]\'','\'(40.84-43.98]\'','\'(-inf-1.6]\'','\'(-inf-0.6]\'','\'(1.24-1.55]\'','\'(0.3-0.6]\'','\'(-inf-31.2]\'',42,'\'(97.142-100.595]\'',100,noband
19900702,j6,yieldhouse,34367,yes,key,yes,benton,gallatin,uncoated,uncoated,no,line,yes,woodhoe70,816,'\'(8.2-9.1]\'',tabloid,northus,1911,'\'(58.25-63]\'',47,0.167,'\'(16.52-17.85]\'',75,'\'(0.653125-0.7725]\'',30,'\'(10.74-14.32]\'',1700,'\'(44.59-48.18]\'','\'(37.7-40.84]\'','\'(-inf-1.6]\'','\'(-inf-0.6]\'','\'(2.79-inf)\'','\'(0.3-0.6]\'','\'(37.6-40.8]\'',40,'\'(93.689-97.142]\'',100,band
19900706,x135,ames,34583,no,key,yes,benton,gallatin,coated,coated,no,line,yes,motter94,827,'\'(8.2-9.1]\'',tabloid,canadian,1911,'\'(39.25-44]\'',47,0.2,'\'(13.86-15.19]\'',75,'\'(0.653125-0.7725]\'',25,'\'(-inf-3.58]\'',2100,'\'(58.95-62.54]\'','\'(37.7-40.84]\'','\'(-inf-1.6]\'','\'(-inf-0.6]\'','\'(2.17-2.48]\'','\'(0.9-1.2]\'','\'(31.2-34.4]\'',40,'\'(93.689-97.142]\'',100,noband
19900705,x151,tvguide,25428,yes,key,yes,benton,gallatin,uncoated,uncoated,no,line,yes,motter94,821,'\'(1.9-2.8]\'',tabloid,northus,1911,'\'(44-48.75]\'',47,0.2,'\'(13.86-15.19]\'',80,'\'(0.653125-0.7725]\'',20,'\'(17.9-21.48]\'',1800,'\'(44.59-48.18]\'','\'(34.56-37.7]\'','\'(-inf-1.6]\'','\'(-inf-0.6]\'','\'(2.48-2.79]\'','\'(0.6-0.9]\'','\'(37.6-40.8]\'',40,'\'(93.689-97.142]\'',100,noband
19900330,x750,guideposts,23040,yes,key,yes,benton,gallatin,uncoated,uncoated,no,line,no,motter94,821,'\'(6.4-7.3]\'',tabloid,?,?,'\'(48.75-53.5]\'',59,0.333,'\'(13.86-15.19]\'',71,'\'(0.53375-0.653125]\'',20,'\'(10.74-14.32]\'',1650,'\'(55.36-58.95]\'','\'(31.42-34.56]\'','\'(-inf-1.6]\'','\'(-inf-0.6]\'','\'(2.48-2.79]\'','\'(0.9-1.2]\'','\'(37.6-40.8]\'',?,?,100,band
19900707,t245,massey,36784,yes,key,yes,benton,gallatin,uncoated,uncoated,no,line,yes,woodhoe70,815,'\'(1.9-2.8]\'',catalog,northus,1910,'\'(58.25-63]\'',58,0.333,'\'(13.86-15.19]\'',93,'\'(0.891875-1.01125]\'',25,'\'(-inf-3.58]\'',1650,'\'(55.36-58.95]\'','\'(31.42-34.56]\'','\'(-inf-1.6]\'','\'(-inf-0.6]\'','\'(2.48-2.79]\'','\'(0.9-1.2]\'','\'(37.6-40.8]\'',35,'\'(97.142-100.595]\'',100,band
19900708,f374,massey,36784,yes,key,yes,benton,gallatin,uncoated,uncoated,no,line,no,woodhoe70,815,'\'(1.9-2.8]\'',catalog,northus,1910,'\'(48.75-53.5]\'',58,0.367,'\'(12.53-13.86]\'',100,'\'(0.653125-0.7725]\'',35,'\'(-inf-3.58]\'',1750,'\'(55.36-58.95]\'','\'(43.98-47.12]\'','\'(1.6-3.2]\'','\'(-inf-0.6]\'','\'(2.48-2.79]\'','\'(0.3-0.6]\'','\'(37.6-40.8]\'',35,'\'(97.142-100.595]\'',100,band
19900710,b181,modmat,47104,yes,key,yes,benton,gallatin,uncoated,uncoated,no,line,yes,albert70,802,'\'(1.9-2.8]\'',catalog,northus,1910,'\'(39.25-44]\'',56,0.3,'\'(15.19-16.52]\'',80,?,45,'\'(17.9-21.48]\'',1400,'\'(-inf-44.59]\'','\'(34.56-37.7]\'','\'(-inf-1.6]\'','\'(-inf-0.6]\'','\'(2.79-inf)\'','\'(0.3-0.6]\'','\'(37.6-40.8]\'',35,'\'(97.142-100.595]\'',100,noband
19900710,m332,modmat,47104,yes,key,yes,benton,gallatin,uncoated,uncoated,no,line,yes,albert70,802,'\'(6.4-7.3]\'',catalog,northus,1911,'\'(29.75-34.5]\'',56,0.433,'\'(15.19-16.52]\'',70,?,60,'\'(21.48-25.06]\'',1400,'\'(44.59-48.18]\'','\'(31.42-34.56]\'','\'(-inf-1.6]\'','\'(-inf-0.6]\'','\'(2.79-inf)\'','\'(0.9-1.2]\'','\'(37.6-40.8]\'',40,'\'(93.689-97.142]\'',100,noband
19900710,t234,massey,36784,yes,key,yes,benton,gallatin,uncoated,uncoated,no,xylol,yes,woodhoe70,815,'\'(8.2-9.1]\'',catalog,northus,1910,'\'(34.5-39.25]\'',56,0.3,'\'(13.86-15.19]\'',82,'\'(0.53375-0.653125]\'',28,'\'(-inf-3.58]\'',1700,'\'(55.36-58.95]\'','\'(40.84-43.98]\'','\'(1.6-3.2]\'','\'(-inf-0.6]\'','\'(2.48-2.79]\'','\'(0.3-0.6]\'','\'(37.6-40.8]\'',35,'\'(97.142-100.595]\'',100,noband
19900710,m39,modmat,47104,yes,key,yes,benton,gallatin,uncoated,uncoated,no,xylol,yes,motter70,813,'\'(4.6-5.5]\'',catalog,northus,1911,'\'(48.75-53.5]\'',56,0.333,'\'(13.86-15.19]\'',74,'\'(0.653125-0.7725]\'',?,'\'(7.16-10.74]\'',1400,'\'(51.77-55.36]\'','\'(37.7-40.84]\'','\'(-inf-1.6]\'','\'(3.6-4.2]\'','\'(2.17-2.48]\'','\'(0.6-0.9]\'','\'(37.6-40.8]\'',40,'\'(93.689-97.142]\'',100,noband
19900710,f450,modmat,47104,yes,key,yes,benton,gallatin,uncoated,uncoated,no,xylol,yes,motter70,813,'\'(-inf-1.9]\'',catalog,northus,1911,'\'(53.5-58.25]\'',56,0.5,'\'(12.53-13.86]\'',73,'\'(0.653125-0.7725]\'',?,'\'(3.58-7.16]\'',1400,'\'(51.77-55.36]\'','\'(40.84-43.98]\'','\'(-inf-1.6]\'','\'(-inf-0.6]\'','\'(1.86-2.17]\'','\'(0.3-0.6]\'','\'(37.6-40.8]\'',40,'\'(93.689-97.142]\'',100,noband
19900706,x281,ames,34583,no,key,yes,benton,gallatin,coated,coated,no,line,yes,motter94,827,'\'(1.9-2.8]\'',tabloid,canadian,1911,'\'(44-48.75]\'',55,0.2,'\'(13.86-15.19]\'',73,'\'(0.653125-0.7725]\'',30,'\'(-inf-3.58]\'',2100,'\'(58.95-62.54]\'','\'(37.7-40.84]\'','\'(-inf-1.6]\'','\'(-inf-0.6]\'','\'(2.48-2.79]\'','\'(0.6-0.9]\'','\'(31.2-34.4]\'',40,'\'(93.689-97.142]\'',100,band
19900710,x346,hills,34714,no,key,yes,benton,gallatin,coated,coated,no,line,yes,motter94,824,'\'(8.2-9.1]\'',tabloid,canadian,1911,'\'(29.75-34.5]\'',56,0.2,'\'(13.86-15.19]\'',87,'\'(0.7725-0.891875]\'',20,'\'(-inf-3.58]\'',2150,'\'(55.36-58.95]\'','\'(40.84-43.98]\'','\'(11.2-12.8]\'','\'(-inf-0.6]\'','\'(1.24-1.55]\'','\'(0.3-0.6]\'','\'(-inf-31.2]\'',40,'\'(93.689-97.142]\'',100,noband
19900710,x235,hills,34714,no,key,yes,benton,gallatin,coated,coated,no,line,yes,motter94,824,'\'(1.9-2.8]\'',tabloid,canadian,1910,'\'(39.25-44]\'',56,0.333,'\'(15.19-16.52]\'',86,'\'(0.7725-0.891875]\'',32,'\'(-inf-3.58]\'',2150,'\'(55.36-58.95]\'','\'(40.84-43.98]\'','\'(11.2-12.8]\'','\'(-inf-0.6]\'','\'(2.17-2.48]\'','\'(0.6-0.9]\'','\'(-inf-31.2]\'',35,'\'(97.142-100.595]\'',100,noband
19900710,b125,modmat,47104,yes,key,yes,benton,gallatin,coated,coated,no,line,yes,motter70,813,'\'(9.1-inf)\'',catalog,northus,1911,'\'(53.5-58.25]\'',56,0.4,'\'(13.86-15.19]\'',87,'\'(0.653125-0.7725]\'',?,'\'(-inf-3.58]\'',1250,'\'(58.95-62.54]\'','\'(34.56-37.7]\'','\'(-inf-1.6]\'','\'(-inf-0.6]\'','\'(2.48-2.79]\'','\'(0.9-1.2]\'','\'(37.6-40.8]\'',40,'\'(93.689-97.142]\'',100,noband
19900710,t280,modmat,47104,yes,key,yes,benton,gallatin,coated,coated,no,line,yes,motter70,813,'\'(8.2-9.1]\'',catalog,northus,1911,'\'(53.5-58.25]\'',56,0.4,'\'(13.86-15.19]\'',93,'\'(0.653125-0.7725]\'',?,'\'(-inf-3.58]\'',1250,'\'(58.95-62.54]\'','\'(34.56-37.7]\'','\'(-inf-1.6]\'','\'(-inf-0.6]\'','\'(2.48-2.79]\'','\'(0.9-1.2]\'','\'(37.6-40.8]\'',40,'\'(93.689-97.142]\'',100,noband
19900726,t8,rei,36644,yes,key,yes,benton,gallatin,uncoated,uncoated,no,xylol,no,woodhoe70,816,'\'(1.9-2.8]\'',catalog,northus,1911,'\'(58.25-63]\'',56,0.3,'\'(15.19-16.52]\'',87,'\'(0.53375-0.653125]\'',26,'\'(7.16-10.74]\'',1450,'\'(48.18-51.77]\'','\'(37.7-40.84]\'','\'(1.6-3.2]\'','\'(-inf-0.6]\'','\'(2.79-inf)\'','\'(1.2-1.5]\'','\'(37.6-40.8]\'',40,'\'(93.689-97.142]\'',100,band
19900727,f257,rei,36644,yes,key,yes,benton,gallatin,uncoated,uncoated,no,line,no,albert70,802,'\'(1.9-2.8]\'',catalog,northus,1910,'\'(58.25-63]\'',53,0.3,'\'(17.85-19.18]\'',103,'\'(0.53375-0.653125]\'',50,'\'(21.48-25.06]\'',1600,'\'(-inf-44.59]\'','\'(34.56-37.7]\'','\'(-inf-1.6]\'','\'(-inf-0.6]\'','\'(2.79-inf)\'','\'(0.6-0.9]\'','\'(37.6-40.8]\'',35,'\'(104.048-107.501]\'',100,noband
19900726,f261,rei,36644,yes,key,yes,benton,gallatin,uncoated,uncoated,no,line,no,albert70,802,'\'(6.4-7.3]\'',catalog,northus,1910,'\'(53.5-58.25]\'',53,0.367,'\'(13.86-15.19]\'',70,'\'(0.53375-0.653125]\'',58,'\'(17.9-21.48]\'',1600,'\'(-inf-44.59]\'','\'(37.7-40.84]\'','\'(1.6-3.2]\'','\'(-inf-0.6]\'','\'(2.79-inf)\'','\'(0.9-1.2]\'','\'(37.6-40.8]\'',35,'\'(104.048-107.501]\'',100,noband
19900723,f264,uscav,35683,yes,key,yes,benton,gallatin,uncoated,uncoated,no,line,no,albert70,802,'\'(6.4-7.3]\'',catalog,northus,1911,'\'(58.25-63]\'',61,0.3,'\'(13.86-15.19]\'',85,'\'(0.653125-0.7725]\'',50,'\'(-inf-3.58]\'',1660,'\'(55.36-58.95]\'','\'(37.7-40.84]\'','\'(1.6-3.2]\'','\'(-inf-0.6]\'','\'(2.79-inf)\'','\'(0.9-1.2]\'','\'(31.2-34.4]\'',40,'\'(93.689-97.142]\'',100,noband
19900723,f294,uscav,35683,yes,key,yes,benton,gallatin,uncoated,uncoated,no,line,no,albert70,802,'\'(1.9-2.8]\'',catalog,northus,1910,'\'(63-67.75]\'',61,0.367,'\'(13.86-15.19]\'',80,'\'(0.295-0.414375]\'',45,'\'(17.9-21.48]\'',1660,'\'(-inf-44.59]\'','\'(37.7-40.84]\'','\'(-inf-1.6]\'','\'(-inf-0.6]\'','\'(2.79-inf)\'','\'(0.9-1.2]\'','\'(31.2-34.4]\'',35,'\'(104.048-107.501]\'',100,noband
19900723,x232,eckerds,34685,no,key,yes,benton,gallatin,coated,coated,no,line,yes,motter94,828,'\'(1.9-2.8]\'',tabloid,canadian,1911,'\'(48.75-53.5]\'',61,0.267,'\'(13.86-15.19]\'',88,'\'(0.891875-1.01125]\'',29,'\'(-inf-3.58]\'',2350,'\'(51.77-55.36]\'','\'(47.12-50.26]\'',?,'\'(-inf-0.6]\'','\'(2.48-2.79]\'','\'(0.9-1.2]\'','\'(-inf-31.2]\'',40,'\'(93.689-97.142]\'',100,noband
19900723,x750,eckerds,34685,no,key,yes,benton,gallatin,coated,coated,no,line,yes,motter94,828,'\'(9.1-inf)\'',tabloid,canadian,1910,'\'(48.75-53.5]\'',61,0.333,'\'(12.53-13.86]\'',72,'\'(0.891875-1.01125]\'',41,'\'(-inf-3.58]\'',2350,'\'(55.36-58.95]\'','\'(40.84-43.98]\'',?,'\'(-inf-0.6]\'','\'(1.86-2.17]\'','\'(0.9-1.2]\'','\'(-inf-31.2]\'',35,'\'(104.048-107.501]\'',100,noband
19900723,x351,roses,34894,no,key,yes,benton,gallatin,coated,coated,no,line,no,motter94,821,'\'(1.9-2.8]\'',tabloid,canadian,1910,'\'(44-48.75]\'',61,0.4,'\'(13.86-15.19]\'',78,'\'(0.653125-0.7725]\'',20,'\'(25.06-28.64]\'',2100,'\'(-inf-44.59]\'','\'(31.42-34.56]\'','\'(-inf-1.6]\'','\'(-inf-0.6]\'','\'(2.48-2.79]\'','\'(0.6-0.9]\'','\'(-inf-31.2]\'',35,'\'(104.048-107.501]\'',100,noband
19900723,x25,roses,34894,no,key,yes,benton,gallatin,coated,coated,no,line,yes,motter94,821,'\'(6.4-7.3]\'',tabloid,canadian,1910,'\'(48.75-53.5]\'',61,0.333,'\'(12.53-13.86]\'',70,'\'(0.653125-0.7725]\'',25,'\'(21.48-25.06]\'',2100,'\'(-inf-44.59]\'','\'(34.56-37.7]\'','\'(4.8-6.4]\'','\'(-inf-0.6]\'','\'(2.48-2.79]\'','\'(0.6-0.9]\'','\'(-inf-31.2]\'',35,'\'(104.048-107.501]\'',100,noband
19900620,o7,target,34547,no,key,yes,benton,gallatin,coated,coated,no,line,?,motter94,827,'\'(1.9-2.8]\'',spiegel,canadian,1910,'\'(29.75-34.5]\'',54,0.267,'\'(15.19-16.52]\'',78,'\'(0.891875-1.01125]\'',25,'\'(-inf-3.58]\'',1900,'\'(55.36-58.95]\'','\'(40.84-43.98]\'','\'(9.6-11.2]\'','\'(-inf-0.6]\'','\'(2.48-2.79]\'','\'(0.3-0.6]\'','\'(-inf-31.2]\'',35,'\'(90.236-93.689]\'',100,noband
19900620,o15,target,34547,no,key,yes,benton,gallatin,coated,coated,no,line,?,motter94,827,'\'(8.2-9.1]\'',spiegel,canadian,1910,'\'(29.75-34.5]\'',54,0.5,'\'(15.19-16.52]\'',78,'\'(0.891875-1.01125]\'',25,'\'(-inf-3.58]\'',1900,'\'(55.36-58.95]\'','\'(40.84-43.98]\'','\'(9.6-11.2]\'','\'(-inf-0.6]\'','\'(1.24-1.55]\'','\'(0.6-0.9]\'','\'(-inf-31.2]\'',35,'\'(100.595-104.048]\'',100,noband
19900719,x753,wards,36066,no,key,yes,benton,gallatin,coated,coated,no,line,yes,motter94,827,'\'(8.2-9.1]\'',tabloid,canadian,1911,'\'(39.25-44]\'',54,0.2,'\'(13.86-15.19]\'',72,'\'(0.653125-0.7725]\'',35,'\'(-inf-3.58]\'',2500,'\'(55.36-58.95]\'','\'(40.84-43.98]\'','\'(-inf-1.6]\'','\'(-inf-0.6]\'','\'(1.86-2.17]\'','\'(0.9-1.2]\'','\'(-inf-31.2]\'',40,'\'(97.142-100.595]\'',100,noband
19900719,x823,wards,36066,no,key,yes,benton,gallatin,coated,coated,no,line,yes,motter94,827,'\'(1.9-2.8]\'',tabloid,canadian,1911,'\'(39.25-44]\'',54,0.367,'\'(13.86-15.19]\'',78,'\'(0.653125-0.7725]\'',20,'\'(-inf-3.58]\'',2500,'\'(58.95-62.54]\'','\'(37.7-40.84]\'','\'(-inf-1.6]\'','\'(-inf-0.6]\'','\'(2.48-2.79]\'','\'(0.6-0.9]\'','\'(-inf-31.2]\'',40,'\'(97.142-100.595]\'',100,noband
19900718,x60,wards,36066,no,key,yes,benton,gallatin,coated,coated,no,line,yes,motter94,824,'\'(8.2-9.1]\'',tabloid,canadian,1910,'\'(44-48.75]\'',54,0.2,'\'(13.86-15.19]\'',80,'\'(0.7725-0.891875]\'',20,'\'(-inf-3.58]\'',2000,'\'(55.36-58.95]\'','\'(40.84-43.98]\'','\'(-inf-1.6]\'','\'(-inf-0.6]\'','\'(1.24-1.55]\'','\'(0.3-0.6]\'','\'(31.2-34.4]\'',35,'\'(110.954-114.407]\'',100,noband
19900806,j40,walmart,34493,?,key,yes,benton,gallatin,coated,uncoated,no,line,no,woodhoe70,816,'\'(8.2-9.1]\'',tabloid,?,1910,?,51,0.167,'\'(15.19-16.52]\'',75,'\'(0.414375-0.53375]\'',30,'\'(-inf-3.58]\'',1800,'\'(55.36-58.95]\'','\'(40.84-43.98]\'','\'(-inf-1.6]\'','\'(-inf-0.6]\'','\'(1.86-2.17]\'','\'(0.9-1.2]\'','\'(-inf-31.2]\'',35,'\'(97.142-100.595]\'',100,band
19900730,x153,roses,34896,no,key,yes,benton,gallatin,coated,coated,no,line,yes,motter94,828,'\'(1.9-2.8]\'',tabloid,northus,1910,'\'(39.25-44]\'',54,0.4,'\'(15.19-16.52]\'',88,'\'(0.7725-0.891875]\'',?,'\'(3.58-7.16]\'',2300,'\'(48.18-51.77]\'','\'(43.98-47.12]\'','\'(6.4-8]\'','\'(-inf-0.6]\'','\'(2.48-2.79]\'','\'(0.9-1.2]\'','\'(31.2-34.4]\'',35,'\'(110.954-114.407]\'',100,noband
19900730,x272,roses,34896,no,key,yes,benton,gallatin,coated,coated,no,line,yes,motter94,828,'\'(8.2-9.1]\'',tabloid,northus,1910,'\'(39.25-44]\'',54,0.333,'\'(13.86-15.19]\'',90,'\'(0.7725-0.891875]\'',?,'\'(-inf-3.58]\'',2300,'\'(51.77-55.36]\'','\'(47.12-50.26]\'','\'(3.2-4.8]\'','\'(-inf-0.6]\'','\'(2.79-inf)\'','\'(0.9-1.2]\'','\'(31.2-34.4]\'',35,'\'(110.954-114.407]\'',100,noband
19900730,f131,downs,23050,yes,key,yes,benton,gallatin,uncoated,uncoated,no,line,yes,woodhoe70,816,'\'(1.9-2.8]\'',catalog,northus,1910,'\'(53.5-58.25]\'',54,0.367,'\'(15.19-16.52]\'',79,'\'(0.414375-0.53375]\'',23,'\'(17.9-21.48]\'',1500,'\'(44.59-48.18]\'','\'(31.42-34.56]\'','\'(4.8-6.4]\'','\'(-inf-0.6]\'','\'(2.79-inf)\'','\'(0.9-1.2]\'','\'(31.2-34.4]\'',35,'\'(90.236-93.689]\'',100,noband
19900727,f76,rei,36644,yes,key,yes,benton,gallatin,uncoated,uncoated,no,line,no,albert70,802,'\'(1.9-2.8]\'',catalog,northus,1910,'\'(58.25-63]\'',53,0.333,'\'(15.19-16.52]\'',88,'\'(0.653125-0.7725]\'',55,'\'(21.48-25.06]\'',1550,'\'(-inf-44.59]\'','\'(34.56-37.7]\'','\'(-inf-1.6]\'','\'(-inf-0.6]\'','\'(2.79-inf)\'','\'(0.6-0.9]\'','\'(37.6-40.8]\'',35,'\'(104.048-107.501]\'',100,noband
19900730,f383,downs,23050,yes,key,yes,benton,gallatin,uncoated,uncoated,no,line,yes,woodhoe70,816,'\'(8.2-9.1]\'',catalog,northus,1910,'\'(53.5-58.25]\'',54,0.3,'\'(15.19-16.52]\'',79,'\'(0.414375-0.53375]\'',30,'\'(10.74-14.32]\'',1500,'\'(48.18-51.77]\'','\'(34.56-37.7]\'','\'(-inf-1.6]\'','\'(-inf-0.6]\'','\'(2.79-inf)\'','\'(0.3-0.6]\'','\'(31.2-34.4]\'',35,'\'(90.236-93.689]\'',100,noband
19900727,f374,rei,36644,yes,key,yes,benton,gallatin,uncoated,uncoated,no,line,no,albert70,802,'\'(6.4-7.3]\'',catalog,northus,1910,'\'(58.25-63]\'',53,0.3,'\'(13.86-15.19]\'',70,'\'(0.653125-0.7725]\'',50,'\'(17.9-21.48]\'',1550,'\'(-inf-44.59]\'','\'(37.7-40.84]\'','\'(1.6-3.2]\'','\'(-inf-0.6]\'','\'(2.79-inf)\'','\'(0.9-1.2]\'','\'(37.6-40.8]\'',35,'\'(110.954-114.407]\'',100,noband
19900801,j15,wards,36882,no,key,yes,benton,gallatin,coated,coated,no,line,yes,woodhoe70,816,'\'(1.9-2.8]\'',tabloid,canadian,1910,'\'(44-48.75]\'',53,0.3,'\'(15.19-16.52]\'',78,'\'(0.891875-1.01125]\'',?,'\'(10.74-14.32]\'',2150,'\'(48.18-51.77]\'','\'(34.56-37.7]\'','\'(1.6-3.2]\'','\'(-inf-0.6]\'','\'(2.48-2.79]\'','\'(0.9-1.2]\'','\'(-inf-31.2]\'',35,'\'(110.954-114.407]\'',100,noband
19900811,j38,wards,36882,no,key,yes,benton,gallatin,coated,coated,no,line,yes,woodhoe70,816,'\'(8.2-9.1]\'',tabloid,canadian,1910,'\'(34.5-39.25]\'',53,0.267,'\'(13.86-15.19]\'',80,'\'(0.891875-1.01125]\'',?,'\'(3.58-7.16]\'',2150,'\'(55.36-58.95]\'','\'(37.7-40.84]\'','\'(-inf-1.6]\'','\'(-inf-0.6]\'','\'(2.48-2.79]\'','\'(0.3-0.6]\'','\'(-inf-31.2]\'',35,'\'(110.954-114.407]\'',100,noband
19900804,j60,walmart,34483,no,key,yes,benton,gallatin,coated,uncoated,no,line,yes,woodhoe70,816,'\'(1.9-2.8]\'',tabloid,?,1910,'\'(34.5-39.25]\'',55,0.5,'\'(13.86-15.19]\'',70,'\'(0.414375-0.53375]\'',32,'\'(-inf-3.58]\'',1950,'\'(55.36-58.95]\'','\'(40.84-43.98]\'','\'(-inf-1.6]\'','\'(-inf-0.6]\'','\'(2.48-2.79]\'','\'(1.2-1.5]\'','\'(-inf-31.2]\'',35,'\'(97.142-100.595]\'',100,band
19900805,j60,walmart,34493,no,key,yes,benton,gallatin,coated,coated,no,line,no,woodhoe70,816,'\'(1.9-2.8]\'',tabloid,?,1910,'\'(34.5-39.25]\'',55,0.233,'\'(13.86-15.19]\'',70,'\'(0.414375-0.53375]\'',35,'\'(-inf-3.58]\'',2000,'\'(55.36-58.95]\'','\'(40.84-43.98]\'','\'(-inf-1.6]\'','\'(-inf-0.6]\'','\'(2.48-2.79]\'','\'(1.2-1.5]\'','\'(-inf-31.2]\'',35,'\'(97.142-100.595]\'',100,band
19900811,j40,walmart,34493,?,key,yes,benton,gallatin,coated,uncoated,no,line,no,woodhoe70,816,'\'(8.2-9.1]\'',tabloid,northus,1910,?,54,0.333,'\'(16.52-17.85]\'',94,'\'(0.175625-0.295]\'',26,'\'(-inf-3.58]\'',1900,'\'(55.36-58.95]\'','\'(40.84-43.98]\'','\'(-inf-1.6]\'','\'(-inf-0.6]\'','\'(2.48-2.79]\'','\'(0.9-1.2]\'','\'(-inf-31.2]\'',35,'\'(97.142-100.595]\'',100,noband
19900811,j45,walmart,34493,no,key,yes,benton,gallatin,coated,uncoated,no,line,no,woodhoe70,816,'\'(1.9-2.8]\'',tabloid,northus,1911,?,54,0.2,'\'(13.86-15.19]\'',80,'\'(0.295-0.414375]\'',34,'\'(-inf-3.58]\'',1900,'\'(55.36-58.95]\'','\'(37.7-40.84]\'','\'(-inf-1.6]\'','\'(-inf-0.6]\'','\'(2.48-2.79]\'','\'(1.2-1.5]\'','\'(-inf-31.2]\'',40,'\'(104.048-107.501]\'',100,noband
19900807,x315,ames,34585,no,key,yes,?,gallatin,coated,coated,no,line,yes,motter94,828,'\'(1.9-2.8]\'',tabloid,canadian,1910,'\'(29.75-34.5]\'',50,0.2,'\'(15.19-16.52]\'',84,'\'(0.891875-1.01125]\'',?,'\'(-inf-3.58]\'',2400,'\'(55.36-58.95]\'','\'(40.84-43.98]\'','\'(3.2-4.8]\'','\'(-inf-0.6]\'','\'(2.48-2.79]\'','\'(0.9-1.2]\'','\'(31.2-34.4]\'',35,'\'(93.689-97.142]\'',100,noband
19900807,x766,ames,34585,no,key,yes,?,gallatin,coated,coated,no,line,yes,motter94,828,'\'(8.2-9.1]\'',tabloid,canadian,1910,'\'(29.75-34.5]\'',50,0.333,'\'(15.19-16.52]\'',92,'\'(0.891875-1.01125]\'',?,'\'(-inf-3.58]\'',2400,'\'(55.36-58.95]\'','\'(40.84-43.98]\'','\'(1.6-3.2]\'','\'(-inf-0.6]\'','\'(2.79-inf)\'','\'(1.2-1.5]\'','\'(31.2-34.4]\'',35,'\'(93.689-97.142]\'',100,noband
19900810,w717,sheplers,36776,yes,key,yes,benton,gallatin,uncoated,uncoated,no,xylol,yes,albert70,802,'\'(6.4-7.3]\'',catalog,northus,1910,'\'(44-48.75]\'',50,0.2,'\'(13.86-15.19]\'',70,'\'(0.653125-0.7725]\'',42,'\'(3.58-7.16]\'',1700,'\'(51.77-55.36]\'','\'(40.84-43.98]\'','\'(-inf-1.6]\'','\'(-inf-0.6]\'','\'(2.79-inf)\'','\'(0.6-0.9]\'','\'(37.6-40.8]\'',45,'\'(97.142-100.595]\'',100,noband
19900810,w516,sheplers,36776,yes,key,yes,benton,gallatin,uncoated,uncoated,no,xylol,yes,albert70,802,'\'(1.9-2.8]\'',spiegel,northus,1910,'\'(39.25-44]\'',50,0.267,'\'(12.53-13.86]\'',75,'\'(0.653125-0.7725]\'',45,'\'(-inf-3.58]\'',1700,'\'(55.36-58.95]\'','\'(40.84-43.98]\'','\'(-inf-1.6]\'','\'(-inf-0.6]\'','\'(2.79-inf)\'','\'(0.3-0.6]\'','\'(37.6-40.8]\'',35,'\'(97.142-100.595]\'',100,noband
19900809,x35,tvguide,25433,yes,key,yes,benton,gallatin,uncoated,uncoated,no,line,yes,motter94,821,'\'(6.4-7.3]\'',tabloid,northus,1910,'\'(48.75-53.5]\'',50,0.2,'\'(15.19-16.52]\'',75,'\'(0.653125-0.7725]\'',25,'\'(-inf-3.58]\'',1850,'\'(51.77-55.36]\'','\'(40.84-43.98]\'','\'(1.6-3.2]\'','\'(-inf-0.6]\'','\'(2.48-2.79]\'','\'(0.9-1.2]\'','\'(37.6-40.8]\'',35,'\'(97.142-100.595]\'',100,noband
19900813,f633,dunns,38016,yes,key,yes,benton,gallatin,uncoated,uncoated,no,line,no,albert70,802,'\'(6.4-7.3]\'',catalog,mideuropean,1910,'\'(44-48.75]\'',54,0.333,'\'(13.86-15.19]\'',70,'\'(0.653125-0.7725]\'',50,'\'(10.74-14.32]\'',1420,'\'(51.77-55.36]\'','\'(31.42-34.56]\'','\'(-inf-1.6]\'','\'(-inf-0.6]\'','\'(2.79-inf)\'','\'(0.9-1.2]\'','\'(-inf-31.2]\'',35,'\'(104.048-107.501]\'',100,noband
19900813,m200,dunns,38016,yes,key,yes,benton,gallatin,uncoated,uncoated,no,line,no,albert70,802,'\'(1.9-2.8]\'',catalog,mideuropean,1910,'\'(44-48.75]\'',54,0.233,'\'(13.86-15.19]\'',67,'\'(0.653125-0.7725]\'',45,'\'(10.74-14.32]\'',1420,'\'(48.18-51.77]\'','\'(34.56-37.7]\'','\'(-inf-1.6]\'','\'(-inf-0.6]\'','\'(2.79-inf)\'','\'(0.3-0.6]\'','\'(-inf-31.2]\'',35,'\'(104.048-107.501]\'',100,noband
19900812,r15,target,34549,no,key,yes,benton,gallatin,coated,coated,no,line,no,woodhoe70,815,'\'(1.9-2.8]\'',spiegel,canadian,1911,'\'(44-48.75]\'',54,0.267,'\'(13.86-15.19]\'',90,'\'(0.653125-0.7725]\'',30,'\'(-inf-3.58]\'',2000,'\'(55.36-58.95]\'','\'(40.84-43.98]\'','\'(-inf-1.6]\'','\'(-inf-0.6]\'','\'(2.79-inf)\'','\'(0.9-1.2]\'','\'(31.2-34.4]\'',40,'\'(100.595-104.048]\'',100,noband
19900812,x65,mervyns,34175,no,key,yes,benton,gallatin,coated,coated,no,line,no,motter94,821,'\'(6.4-7.3]\'',tabloid,?,1910,'\'(29.75-34.5]\'',54,0.233,'\'(15.19-16.52]\'',68,'\'(0.653125-0.7725]\'',25,'\'(3.58-7.16]\'',2000,'\'(51.77-55.36]\'','\'(37.7-40.84]\'','\'(3.2-4.8]\'','\'(-inf-0.6]\'','\'(2.17-2.48]\'','\'(0.6-0.9]\'','\'(34.4-37.6]\'',35,'\'(104.048-107.501]\'',100,noband
19900813,x333,walmart,34493,no,key,yes,benton,gallatin,coated,coated,no,line,yes,motter94,824,'\'(8.2-9.1]\'',tabloid,?,1910,'\'(29.75-34.5]\'',54,0.5,'\'(12.53-13.86]\'',70,'\'(0.7725-0.891875]\'',30,'\'(-inf-3.58]\'',2000,'\'(55.36-58.95]\'','\'(40.84-43.98]\'','\'(-inf-1.6]\'','\'(-inf-0.6]\'','\'(2.17-2.48]\'','\'(0.9-1.2]\'','\'(-inf-31.2]\'',35,'\'(97.142-100.595]\'',100,noband
19900812,x282,mervyns,34175,no,key,yes,benton,gallatin,coated,coated,no,line,yes,motter94,821,'\'(1.9-2.8]\'',tabloid,?,1910,'\'(29.75-34.5]\'',54,0.333,'\'(16.52-17.85]\'',71,'\'(0.653125-0.7725]\'',25,'\'(17.9-21.48]\'',2000,'\'(44.59-48.18]\'','\'(34.56-37.7]\'','\'(-inf-1.6]\'','\'(-inf-0.6]\'','\'(2.48-2.79]\'','\'(0.9-1.2]\'','\'(34.4-37.6]\'',35,'\'(104.048-107.501]\'',100,noband
19900813,x184,walmart,34493,no,key,yes,benton,gallatin,coated,coated,no,line,yes,motter94,824,'\'(1.9-2.8]\'',tabloid,?,1910,'\'(29.75-34.5]\'',54,0.167,'\'(13.86-15.19]\'',70,'\'(0.7725-0.891875]\'',30,'\'(-inf-3.58]\'',2000,'\'(55.36-58.95]\'','\'(40.84-43.98]\'','\'(-inf-1.6]\'','\'(-inf-0.6]\'','\'(1.24-1.55]\'','\'(0.3-0.6]\'','\'(-inf-31.2]\'',35,'\'(104.048-107.501]\'',100,noband
19900814,r22,target,34549,no,key,yes,benton,gallatin,coated,coated,no,line,yes,woodhoe70,816,'\'(8.2-9.1]\'',spiegel,canadian,1910,'\'(44-48.75]\'',54,0.167,'\'(17.85-19.18]\'',90,'\'(0.414375-0.53375]\'',26,'\'(7.16-10.74]\'',1875,'\'(51.77-55.36]\'','\'(37.7-40.84]\'','\'(-inf-1.6]\'','\'(-inf-0.6]\'','\'(2.79-inf)\'','\'(0.9-1.2]\'','\'(31.2-34.4]\'',35,'\'(104.048-107.501]\'',100,noband
19900812,r23,target,34549,no,key,yes,benton,gallatin,coated,coated,no,line,yes,woodhoe70,815,'\'(8.2-9.1]\'',spiegel,canadian,1910,'\'(44-48.75]\'',54,0.367,'\'(13.86-15.19]\'',100,'\'(0.653125-0.7725]\'',33,'\'(-inf-3.58]\'',2000,'\'(55.36-58.95]\'','\'(40.84-43.98]\'','\'(-inf-1.6]\'','\'(-inf-0.6]\'','\'(2.48-2.79]\'','\'(0.9-1.2]\'','\'(31.2-34.4]\'',35,'\'(104.048-107.501]\'',100,noband
19900819,f236,dunns,38016,yes,key,yes,benton,gallatin,uncoated,uncoated,no,line,yes,motter70,813,'\'(-inf-1.9]\'',catalog,?,1910,'\'(44-48.75]\'',56,0.3,'\'(15.19-16.52]\'',78,'\'(0.653125-0.7725]\'',?,'\'(10.74-14.32]\'',1350,'\'(55.36-58.95]\'','\'(31.42-34.56]\'','\'(-inf-1.6]\'','\'(-inf-0.6]\'','\'(2.17-2.48]\'','\'(0.9-1.2]\'','\'(-inf-31.2]\'',35,'\'(97.142-100.595]\'',100,noband
19900819,f38,dunns,38016,yes,key,yes,benton,gallatin,uncoated,uncoated,no,line,yes,motter70,813,'\'(4.6-5.5]\'',catalog,?,1911,'\'(44-48.75]\'',56,0.233,'\'(15.19-16.52]\'',64,'\'(0.653125-0.7725]\'',?,'\'(10.74-14.32]\'',1350,'\'(55.36-58.95]\'','\'(31.42-34.56]\'','\'(-inf-1.6]\'','\'(-inf-0.6]\'','\'(2.48-2.79]\'','\'(0.3-0.6]\'','\'(-inf-31.2]\'',40,'\'(100.595-104.048]\'',100,noband
19900818,x91,lazarus,34154,yes,key,yes,benton,gallatin,uncoated,uncoated,no,line,no,motter94,828,'\'(1.9-2.8]\'',tabloid,?,1910,'\'(44-48.75]\'',56,0.333,'\'(13.86-15.19]\'',85,'\'(0.891875-1.01125]\'',30,'\'(14.32-17.9]\'',1600,'\'(44.59-48.18]\'','\'(34.56-37.7]\'','\'(-inf-1.6]\'','\'(-inf-0.6]\'','\'(2.79-inf)\'','\'(0.9-1.2]\'','\'(37.6-40.8]\'',35,'\'(97.142-100.595]\'',100,noband
19900818,x132,lazarus,34154,yes,key,yes,benton,gallatin,uncoated,uncoated,no,line,no,motter94,828,'\'(9.1-inf)\'',tabloid,canadian,1910,'\'(29.75-34.5]\'',56,0.367,'\'(13.86-15.19]\'',83,'\'(0.891875-1.01125]\'',30,'\'(10.74-14.32]\'',1600,'\'(51.77-55.36]\'','\'(34.56-37.7]\'','\'(-inf-1.6]\'','\'(5.4-inf)\'','\'(2.48-2.79]\'','\'(0.9-1.2]\'','\'(37.6-40.8]\'',35,'\'(97.142-100.595]\'',100,noband
19900820,x377,ames,34585,no,key,yes,benton,gallatin,coated,coated,no,line,yes,motter94,828,'\'(1.9-2.8]\'',tabloid,canadian,1910,'\'(53.5-58.25]\'',57,0.367,'\'(15.19-16.52]\'',84,'\'(0.891875-1.01125]\'',30,'\'(17.9-21.48]\'',2400,'\'(44.59-48.18]\'','\'(31.42-34.56]\'','\'(-inf-1.6]\'','\'(-inf-0.6]\'','\'(2.79-inf)\'','\'(0.9-1.2]\'','\'(31.2-34.4]\'',40,'\'(93.689-97.142]\'',100,noband
19900820,x129,ames,34585,no,key,yes,benton,gallatin,coated,coated,no,line,yes,motter94,828,'\'(9.1-inf)\'',tabloid,canadian,1910,'\'(53.5-58.25]\'',57,?,'\'(13.86-15.19]\'',78,'\'(0.891875-1.01125]\'',30,'\'(7.16-10.74]\'',2400,'\'(51.77-55.36]\'','\'(34.56-37.7]\'','\'(-inf-1.6]\'','\'(-inf-0.6]\'','\'(2.48-2.79]\'','\'(0.9-1.2]\'','\'(31.2-34.4]\'',40,'\'(93.689-97.142]\'',100,noband
19900830,t204,galls,38061,yes,key,yes,benton,gallatin,uncoated,uncoated,no,xylol,?,woodhoe70,815,'\'(-inf-1.9]\'',spiegel,northus,1911,'\'(44-48.75]\'',49,0.367,'\'(13.86-15.19]\'',84,'\'(0.653125-0.7725]\'',28,'\'(-inf-3.58]\'',1600,'\'(51.77-55.36]\'','\'(40.84-43.98]\'','\'(-inf-1.6]\'','\'(-inf-0.6]\'','\'(2.79-inf)\'','\'(0.9-1.2]\'','\'(31.2-34.4]\'',30,'\'(107.501-110.954]\'',100,band
19900831,x197,tvguide,25437,yes,key,yes,benton,gallatin,uncoated,uncoated,no,line,no,motter94,821,'\'(6.4-7.3]\'',tabloid,northus,1911,'\'(53.5-58.25]\'',51,0.333,'\'(15.19-16.52]\'',70,'\'(0.53375-0.653125]\'',25,'\'(10.74-14.32]\'',1850,'\'(48.18-51.77]\'','\'(37.7-40.84]\'','\'(1.6-3.2]\'','\'(-inf-0.6]\'','\'(2.48-2.79]\'','\'(0.6-0.9]\'','\'(31.2-34.4]\'',30,'\'(97.142-100.595]\'',100,noband
19900831,x138,tvguide,25437,yes,key,yes,benton,gallatin,uncoated,uncoated,no,line,no,motter94,821,'\'(1.9-2.8]\'',tabloid,northus,1911,'\'(53.5-58.25]\'',51,0.267,'\'(15.19-16.52]\'',81,'\'(0.653125-0.7725]\'',25,'\'(7.16-10.74]\'',1850,'\'(48.18-51.77]\'','\'(40.84-43.98]\'','\'(-inf-1.6]\'','\'(-inf-0.6]\'','\'(2.48-2.79]\'','\'(0.3-0.6]\'','\'(31.2-34.4]\'',30,'\'(97.142-100.595]\'',100,noband
19900825,x727,ames,38013,no,key,yes,benton,gallatin,uncoated,coated,no,line,yes,motter94,824,'\'(1.9-2.8]\'',tabloid,?,1910,'\'(39.25-44]\'',55,0.533,'\'(15.19-16.52]\'',80,'\'(0.7725-0.891875]\'',30,'\'(7.16-10.74]\'',2400,'\'(48.18-51.77]\'','\'(37.7-40.84]\'','\'(-inf-1.6]\'','\'(-inf-0.6]\'','\'(1.55-1.86]\'','\'(0.6-0.9]\'','\'(-inf-31.2]\'',45,'\'(93.689-97.142]\'',100,noband
19900825,x60,ames,38013,no,key,yes,benton,gallatin,uncoated,coated,no,line,yes,motter94,824,'\'(8.2-9.1]\'',tabloid,?,1910,'\'(44-48.75]\'',55,0.3,'\'(15.19-16.52]\'',82,'\'(0.653125-0.7725]\'',30,'\'(-inf-3.58]\'',2400,'\'(55.36-58.95]\'','\'(40.84-43.98]\'','\'(-inf-1.6]\'','\'(-inf-0.6]\'','\'(1.86-2.17]\'','\'(0.6-0.9]\'','\'(-inf-31.2]\'',45,'\'(93.689-97.142]\'',100,noband
19900824,f192,competitivedge,34399,yes,key,yes,benton,gallatin,uncoated,uncoated,no,line,yes,motter70,813,'\'(-inf-1.9]\'',catalog,northus,1911,'\'(39.25-44]\'',54,0.3,'\'(13.86-15.19]\'',70,?,?,'\'(7.16-10.74]\'',?,'\'(48.18-51.77]\'','\'(37.7-40.84]\'','\'(-inf-1.6]\'','\'(-inf-0.6]\'','\'(2.48-2.79]\'','\'(0.6-0.9]\'','\'(56.8-inf)\'',30,'\'(97.142-100.595]\'',100,noband
19900824,m254,competitivedge,34399,yes,key,yes,benton,gallatin,uncoated,uncoated,no,line,yes,motter70,813,'\'(4.6-5.5]\'',catalog,northus,1910,'\'(39.25-44]\'',54,0.3,'\'(13.86-15.19]\'',70,?,?,'\'(10.74-14.32]\'',1500,'\'(44.59-48.18]\'','\'(37.7-40.84]\'','\'(1.6-3.2]\'','\'(-inf-0.6]\'','\'(2.48-2.79]\'','\'(0.9-1.2]\'','\'(56.8-inf)\'',45,'\'(93.689-97.142]\'',100,noband
19900821,i353,austads,34066,yes,key,yes,benton,gallatin,uncoated,uncoated,no,line,no,albert70,802,'\'(6.4-7.3]\'',catalog,canadian,1910,'\'(48.75-53.5]\'',55,0.333,'\'(13.86-15.19]\'',70,'\'(0.53375-0.653125]\'',55,'\'(7.16-10.74]\'',1600,'\'(55.36-58.95]\'','\'(31.42-34.56]\'','\'(3.2-4.8]\'','\'(-inf-0.6]\'','\'(2.79-inf)\'','\'(0.6-0.9]\'','\'(37.6-40.8]\'',45,'\'(93.689-97.142]\'',100,noband
19900821,i346,austads,34066,yes,key,yes,benton,gallatin,uncoated,uncoated,no,line,yes,albert70,802,'\'(1.9-2.8]\'',catalog,canadian,1910,'\'(48.75-53.5]\'',55,0.433,'\'(13.86-15.19]\'',80,?,55,'\'(7.16-10.74]\'',1600,'\'(48.18-51.77]\'','\'(37.7-40.84]\'','\'(-inf-1.6]\'','\'(-inf-0.6]\'','\'(2.79-inf)\'','\'(0.3-0.6]\'','\'(37.6-40.8]\'',45,'\'(93.689-97.142]\'',100,noband
19900921,r6,target,34551,no,key,yes,benton,gallatin,coated,coated,no,line,yes,woodhoe70,815,'\'(-inf-1.9]\'',spiegel,canadian,1910,'\'(34.5-39.25]\'',72,0.367,'\'(15.19-16.52]\'',72,'\'(0.891875-1.01125]\'',36,'\'(-inf-3.58]\'',2200,'\'(62.54-66.13]\'','\'(34.56-37.7]\'','\'(-inf-1.6]\'','\'(-inf-0.6]\'','\'(2.48-2.79]\'','\'(0.9-1.2]\'','\'(-inf-31.2]\'',40,'\'(90.236-93.689]\'',90,band
19900921,r6,target,34551,no,key,yes,benton,gallatin,coated,coated,no,line,no,woodhoe70,815,'\'(-inf-1.9]\'',spiegel,canadian,1910,'\'(34.5-39.25]\'',56,0.267,'\'(13.86-15.19]\'',70,'\'(0.891875-1.01125]\'',33,'\'(-inf-3.58]\'',2350,'\'(62.54-66.13]\'','\'(34.56-37.7]\'','\'(-inf-1.6]\'','\'(-inf-0.6]\'','\'(2.48-2.79]\'','\'(0.9-1.2]\'','\'(-inf-31.2]\'',40,'\'(93.689-97.142]\'',90,band
19900920,g657,colortile,34749,no,key,yes,benton,gallatin,coated,coated,no,line,no,woodhoe70,816,'\'(1.9-2.8]\'',tabloid,canadian,?,?,46,?,'\'(15.19-16.52]\'',72,'\'(0.414375-0.53375]\'',32,'\'(-inf-3.58]\'',1673,'\'(55.36-58.95]\'','\'(40.84-43.98]\'','\'(-inf-1.6]\'','\'(-inf-0.6]\'','\'(2.48-2.79]\'','\'(1.2-1.5]\'','\'(-inf-31.2]\'',?,?,?,band
19900913,r7,target,34551,no,key,yes,benton,gallatin,coated,coated,no,line,no,woodhoe70,815,'\'(-inf-1.9]\'',spiegel,canadian,1910,'\'(39.25-44]\'',60,0.2,'\'(15.19-16.52]\'',73,'\'(0.653125-0.7725]\'',28,'\'(-inf-3.58]\'',1850,'\'(62.54-66.13]\'','\'(34.56-37.7]\'','\'(-inf-1.6]\'','\'(-inf-0.6]\'','\'(2.79-inf)\'','\'(0.9-1.2]\'','\'(-inf-31.2]\'',40,'\'(97.142-100.595]\'',90,band
19900909,f126,modmat,47103,yes,key,yes,benton,gallatin,uncoated,uncoated,no,line,no,albert70,802,'\'(6.4-7.3]\'',catalog,northus,1911,'\'(58.25-63]\'',50,0.233,'\'(13.86-15.19]\'',70,'\'(0.653125-0.7725]\'',45,'\'(14.32-17.9]\'',1650,'\'(44.59-48.18]\'','\'(37.7-40.84]\'','\'(1.6-3.2]\'','\'(-inf-0.6]\'','\'(2.48-2.79]\'','\'(0.9-1.2]\'','\'(37.6-40.8]\'',40,'\'(97.142-100.595]\'',100,noband
19900909,f159,modmat,47105,yes,key,yes,benton,gallatin,uncoated,uncoated,no,line,no,woodhoe70,816,'\'(1.9-2.8]\'',catalog,northus,1910,'\'(58.25-63]\'',50,0.267,'\'(13.86-15.19]\'',88,'\'(0.295-0.414375]\'',32,'\'(7.16-10.74]\'',1700,'\'(48.18-51.77]\'','\'(37.7-40.84]\'','\'(4.8-6.4]\'','\'(-inf-0.6]\'','\'(2.79-inf)\'','\'(1.2-1.5]\'','\'(37.6-40.8]\'',40,'\'(100.595-104.048]\'',100,noband
19900909,f337,modmat,47103,yes,key,yes,benton,gallatin,uncoated,uncoated,no,line,no,albert70,802,'\'(1.9-2.8]\'',catalog,northus,1910,'\'(58.25-63]\'',50,0.3,'\'(13.86-15.19]\'',60,'\'(0.653125-0.7725]\'',40,'\'(17.9-21.48]\'',1650,'\'(44.59-48.18]\'','\'(31.42-34.56]\'','\'(-inf-1.6]\'','\'(-inf-0.6]\'','\'(2.48-2.79]\'','\'(0.9-1.2]\'','\'(37.6-40.8]\'',40,'\'(100.595-104.048]\'',100,noband
19900909,f679,modmat,47105,yes,key,yes,uddeholm,gallatin,uncoated,uncoated,no,line,no,woodhoe70,816,'\'(8.2-9.1]\'',catalog,northus,1910,'\'(63-67.75]\'',50,0.267,'\'(13.86-15.19]\'',86,'\'(0.175625-0.295]\'',28,'\'(7.16-10.74]\'',1700,'\'(51.77-55.36]\'','\'(34.56-37.7]\'','\'(1.6-3.2]\'','\'(-inf-0.6]\'','\'(2.48-2.79]\'','\'(0.3-0.6]\'','\'(37.6-40.8]\'',40,'\'(100.595-104.048]\'',100,noband
19900910,m103,modmat,47105,yes,key,yes,benton,gallatin,uncoated,uncoated,no,line,yes,motter70,813,'\'(4.6-5.5]\'',catalog,northus,1911,'\'(53.5-58.25]\'',47,0.367,'\'(12.53-13.86]\'',70,?,?,'\'(10.74-14.32]\'',1600,'\'(48.18-51.77]\'','\'(34.56-37.7]\'','\'(-inf-1.6]\'','\'(-inf-0.6]\'','\'(2.48-2.79]\'','\'(0.3-0.6]\'','\'(37.6-40.8]\'',35,'\'(104.048-107.501]\'',100,noband
19900910,m309,modmat,47105,yes,key,yes,benton,gallatin,uncoated,uncoated,no,line,yes,motter70,813,'\'(-inf-1.9]\'',catalog,northus,1911,'\'(63-67.75]\'',47,0.367,'\'(-inf-12.53]\'',68,?,?,'\'(-inf-3.58]\'',1600,'\'(55.36-58.95]\'','\'(40.84-43.98]\'','\'(-inf-1.6]\'','\'(-inf-0.6]\'','\'(2.79-inf)\'','\'(0.6-0.9]\'','\'(37.6-40.8]\'',35,'\'(104.048-107.501]\'',100,noband
19900910,t284,modmat,47105,yes,key,yes,benton,gallatin,coated,coated,no,line,yes,motter70,813,'\'(9.1-inf)\'',catalog,northus,1911,'\'(53.5-58.25]\'',47,0.233,'\'(15.19-16.52]\'',74,?,?,'\'(-inf-3.58]\'',1600,'\'(58.95-62.54]\'','\'(34.56-37.7]\'','\'(-inf-1.6]\'','\'(-inf-0.6]\'','\'(2.48-2.79]\'','\'(0.9-1.2]\'','\'(37.6-40.8]\'',35,'\'(104.048-107.501]\'',100,noband
19900910,t333,modmat,47105,yes,key,yes,benton,gallatin,coated,coated,no,line,yes,motter70,813,'\'(8.2-9.1]\'',catalog,northus,1910,'\'(53.5-58.25]\'',47,0.2,'\'(13.86-15.19]\'',71,?,?,'\'(-inf-3.58]\'',1600,'\'(58.95-62.54]\'','\'(34.56-37.7]\'','\'(-inf-1.6]\'','\'(-inf-0.6]\'','\'(2.48-2.79]\'','\'(0.6-0.9]\'','\'(37.6-40.8]\'',40,'\'(90.236-93.689]\'',100,noband
19900915,f679,modmat,47105,yes,key,yes,benton,gallatin,uncoated,uncoated,no,line,yes,woodhoe70,816,'\'(8.2-9.1]\'',catalog,northus,1910,'\'(63-67.75]\'',60,0.267,'\'(13.86-15.19]\'',80,'\'(0.175625-0.295]\'',38,'\'(14.32-17.9]\'',1900,'\'(48.18-51.77]\'','\'(34.56-37.7]\'','\'(-inf-1.6]\'','\'(-inf-0.6]\'','\'(2.79-inf)\'','\'(0.6-0.9]\'','\'(37.6-40.8]\'',40,'\'(100.595-104.048]\'',100,noband
19900915,f159,modmat,47105,yes,key,yes,benton,gallatin,uncoated,uncoated,no,line,yes,woodhoe70,816,'\'(1.9-2.8]\'',catalog,northus,1910,'\'(58.25-63]\'',60,0.267,'\'(13.86-15.19]\'',76,'\'(0.295-0.414375]\'',30,'\'(7.16-10.74]\'',1900,'\'(48.18-51.77]\'','\'(37.7-40.84]\'','\'(4.8-6.4]\'','\'(-inf-0.6]\'','\'(2.48-2.79]\'','\'(0.9-1.2]\'','\'(37.6-40.8]\'',40,'\'(100.595-104.048]\'',100,noband
19900924,r6,target,34551,no,key,yes,benton,gallatin,coated,coated,no,line,no,woodhoe70,815,'\'(-inf-1.9]\'',spiegel,canadian,1910,'\'(39.25-44]\'',49,0.267,'\'(13.86-15.19]\'',82,'\'(0.53375-0.653125]\'',30,'\'(-inf-3.58]\'',2150,'\'(62.54-66.13]\'','\'(34.56-37.7]\'','\'(-inf-1.6]\'','\'(-inf-0.6]\'','\'(2.48-2.79]\'','\'(0.9-1.2]\'','\'(-inf-31.2]\'',40,'\'(93.689-97.142]\'',90,band
19901002,g55,kmart,36197,no,key,yes,benton,gallatin,uncoated,coated,no,line,no,woodhoe70,815,'\'(-inf-1.9]\'',tabloid,northus,1910,'\'(53.5-58.25]\'',50,0.133,'\'(13.86-15.19]\'',80,'\'(0.53375-0.653125]\'',32,'\'(7.16-10.74]\'',2000,'\'(58.95-62.54]\'','\'(31.42-34.56]\'','\'(-inf-1.6]\'','\'(-inf-0.6]\'','\'(2.48-2.79]\'','\'(0.9-1.2]\'','\'(34.4-37.6]\'',40,'\'(90.236-93.689]\'',90,band
19901002,g55,kmart,36197,no,key,yes,benton,gallatin,uncoated,coated,no,line,yes,woodhoe70,815,'\'(-inf-1.9]\'',tabloid,northus,1910,'\'(53.5-58.25]\'',48,0.367,'\'(13.86-15.19]\'',76,'\'(0.414375-0.53375]\'',30,'\'(7.16-10.74]\'',2000,'\'(58.95-62.54]\'','\'(31.42-34.56]\'','\'(-inf-1.6]\'','\'(-inf-0.6]\'','\'(2.48-2.79]\'','\'(0.9-1.2]\'','\'(34.4-37.6]\'',40,'\'(90.236-93.689]\'',90,band
19901003,x753,tvguide,25441,yes,key,yes,benton,gallatin,uncoated,uncoated,no,line,no,motter94,821,'\'(6.4-7.3]\'',tabloid,northus,1910,'\'(53.5-58.25]\'',50,0.267,'\'(16.52-17.85]\'',89,'\'(0.891875-1.01125]\'',22,'\'(7.16-10.74]\'',1650,'\'(51.77-55.36]\'','\'(34.56-37.7]\'','\'(-inf-1.6]\'','\'(-inf-0.6]\'','\'(2.48-2.79]\'','\'(0.9-1.2]\'','\'(31.2-34.4]\'',40,'\'(90.236-93.689]\'',90,band
19901002,g150,kmart,36197,no,key,yes,benton,gallatin,uncoated,uncoated,no,line,yes,woodhoe70,816,'\'(1.9-2.8]\'',tabloid,mideuropean,1911,'\'(53.5-58.25]\'',50,0.2,'\'(16.52-17.85]\'',78,'\'(0.175625-0.295]\'',32,'\'(7.16-10.74]\'',1900,'\'(51.77-55.36]\'','\'(37.7-40.84]\'','\'(-inf-1.6]\'','\'(-inf-0.6]\'','\'(2.79-inf)\'','\'(0.9-1.2]\'','\'(34.4-37.6]\'',40,'\'(93.689-97.142]\'',90,band
19901001,x271,toysrus,34754,no,key,no,benton,gallatin,coated,coated,no,line,yes,motter94,824,'\'(1.9-2.8]\'',tabloid,canadian,1910,'\'(39.25-44]\'',48,0.2,'\'(15.19-16.52]\'',70,'\'(0.7725-0.891875]\'',35,'\'(-inf-3.58]\'',2050,'\'(66.13-69.72]\'','\'(31.42-34.56]\'','\'(1.6-3.2]\'','\'(-inf-0.6]\'','\'(1.55-1.86]\'','\'(0.9-1.2]\'','\'(-inf-31.2]\'',40,'\'(90.236-93.689]\'',90,noband
19901001,x251,toysrus,34754,no,key,no,benton,gallatin,coated,coated,no,line,no,motter94,824,'\'(8.2-9.1]\'',tabloid,canadian,1910,'\'(39.25-44]\'',48,0.2,'\'(13.86-15.19]\'',76,'\'(0.7725-0.891875]\'',30,'\'(3.58-7.16]\'',2050,'\'(58.95-62.54]\'','\'(34.56-37.7]\'','\'(-inf-1.6]\'','\'(-inf-0.6]\'','\'(2.48-2.79]\'','\'(0.9-1.2]\'','\'(-inf-31.2]\'',40,'\'(90.236-93.689]\'',90,noband
19900926,x326,walmart,36578,no,key,yes,benton,gallatin,coated,coated,no,line,no,motter94,827,'\'(8.2-9.1]\'',tabloid,mideuropean,1911,'\'(34.5-39.25]\'',48,0.233,'\'(13.86-15.19]\'',76,'\'(0.653125-0.7725]\'',20,'\'(-inf-3.58]\'',2225,'\'(58.95-62.54]\'','\'(34.56-37.7]\'','\'(3.2-4.8]\'','\'(-inf-0.6]\'','\'(2.48-2.79]\'','\'(0.9-1.2]\'','\'(31.2-34.4]\'',40,'\'(104.048-107.501]\'',90,noband
19900926,x206,walmart,36578,no,key,yes,benton,gallatin,coated,coated,no,line,no,motter94,827,'\'(1.9-2.8]\'',tabloid,mideuropean,1911,'\'(34.5-39.25]\'',48,0.3,'\'(13.86-15.19]\'',74,'\'(0.653125-0.7725]\'',20,'\'(-inf-3.58]\'',2225,'\'(58.95-62.54]\'','\'(34.56-37.7]\'','\'(3.2-4.8]\'','\'(-inf-0.6]\'','\'(1.86-2.17]\'','\'(0.9-1.2]\'','\'(31.2-34.4]\'',40,'\'(104.048-107.501]\'',90,noband
19900926,r9,target,34551,no,key,yes,benton,gallatin,coated,coated,no,line,yes,woodhoe70,815,'\'(8.2-9.1]\'',spiegel,canadian,1910,'\'(29.75-34.5]\'',48,0.233,'\'(13.86-15.19]\'',88,'\'(0.653125-0.7725]\'',35,'\'(7.16-10.74]\'',?,'\'(55.36-58.95]\'','\'(34.56-37.7]\'','\'(-inf-1.6]\'','\'(-inf-0.6]\'','\'(2.79-inf)\'','\'(0.6-0.9]\'','\'(-inf-31.2]\'',40,'\'(97.142-100.595]\'',90,noband
19900926,x820,tvguide,25440,yes,key,yes,?,gallatin,uncoated,uncoated,no,line,no,motter94,821,'\'(1.9-2.8]\'',tabloid,northus,1911,'\'(44-48.75]\'',49,0.433,'\'(13.86-15.19]\'',88,'\'(0.53375-0.653125]\'',25,'\'(32.22-inf)\'',2000,'\'(-inf-44.59]\'','\'(-inf-25.14]\'','\'(-inf-1.6]\'','\'(-inf-0.6]\'','\'(2.48-2.79]\'','\'(0.6-0.9]\'','\'(37.6-40.8]\'',40,'\'(93.689-97.142]\'',90,noband
19900924,f337,modmat,47105,yes,key,yes,benton,gallatin,uncoated,uncoated,no,line,yes,motter70,813,'\'(-inf-1.9]\'',catalog,northus,1911,'\'(58.25-63]\'',48,0.367,'\'(13.86-15.19]\'',76,'\'(0.891875-1.01125]\'',?,'\'(3.58-7.16]\'',1600,'\'(55.36-58.95]\'','\'(37.7-40.84]\'','\'(-inf-1.6]\'','\'(-inf-0.6]\'','\'(2.48-2.79]\'','\'(0.6-0.9]\'','\'(37.6-40.8]\'',40,'\'(93.689-97.142]\'',90,noband
19900924,f126,modmat,47105,yes,key,yes,benton,gallatin,uncoated,uncoated,no,line,yes,motter70,813,'\'(4.6-5.5]\'',catalog,northus,1911,'\'(58.25-63]\'',48,0.4,'\'(15.19-16.52]\'',72,'\'(0.891875-1.01125]\'',?,'\'(14.32-17.9]\'',1600,'\'(44.59-48.18]\'','\'(37.7-40.84]\'','\'(-inf-1.6]\'','\'(3.6-4.2]\'','\'(1.86-2.17]\'','\'(0.6-0.9]\'','\'(37.6-40.8]\'',40,'\'(93.689-97.142]\'',90,noband
19901006,g71,kmart,36197,no,key,yes,benton,gallatin,uncoated,uncoated,no,line,no,woodhoe70,816,'\'(8.2-9.1]\'',tabloid,northus,1911,'\'(44-48.75]\'',52,0.3,'\'(15.19-16.52]\'',76,'\'(0.653125-0.7725]\'',30,'\'(14.32-17.9]\'',1700,'\'(48.18-51.77]\'','\'(31.42-34.56]\'','\'(-inf-1.6]\'','\'(-inf-0.6]\'','\'(2.48-2.79]\'','\'(0.6-0.9]\'','\'(34.4-37.6]\'',40,'\'(110.954-114.407]\'',100,band
19901007,m74,casliving,38059,yes,key,yes,benton,gallatin,uncoated,uncoated,no,line,yes,albert70,802,'\'(6.4-7.3]\'',catalog,northus,1911,'\'(39.25-44]\'',52,0.333,'\'(16.52-17.85]\'',80,'\'(0.53375-0.653125]\'',40,'\'(-inf-3.58]\'',1700,'\'(51.77-55.36]\'','\'(43.98-47.12]\'','\'(1.6-3.2]\'','\'(-inf-0.6]\'','\'(2.79-inf)\'','\'(0.9-1.2]\'','\'(31.2-34.4]\'',40,'\'(104.048-107.501]\'',100,noband
19901007,g67,kmart,36197,no,key,yes,benton,gallatin,uncoated,uncoated,no,line,yes,woodhoe70,815,'\'(8.2-9.1]\'',tabloid,mideuropean,1911,'\'(44-48.75]\'',53,0.3,'\'(13.86-15.19]\'',72,'\'(0.653125-0.7725]\'',25,'\'(21.48-25.06]\'',1500,'\'(44.59-48.18]\'','\'(31.42-34.56]\'','\'(-inf-1.6]\'','\'(-inf-0.6]\'','\'(2.48-2.79]\'','\'(0.6-0.9]\'','\'(34.4-37.6]\'',40,'\'(110.954-114.407]\'',100,band
19901004,g84,kmart,36197,no,key,yes,benton,gallatin,uncoated,uncoated,no,line,yes,woodhoe70,815,'\'(1.9-2.8]\'',tabloid,mideuropean,1911,'\'(44-48.75]\'',58,0.333,'\'(13.86-15.19]\'',85,'\'(0.653125-0.7725]\'',28,'\'(14.32-17.9]\'',1800,'\'(48.18-51.77]\'','\'(34.56-37.7]\'','\'(-inf-1.6]\'','\'(-inf-0.6]\'','\'(2.48-2.79]\'','\'(0.3-0.6]\'','\'(34.4-37.6]\'',40,'\'(110.954-114.407]\'',100,band
19901001,g150,kmart,36197,no,key,yes,benton,gallatin,uncoated,uncoated,no,line,yes,woodhoe70,816,'\'(1.9-2.8]\'',tabloid,mideuropean,1910,'\'(53.5-58.25]\'',48,0.233,'\'(17.85-19.18]\'',76,'\'(0.175625-0.295]\'',24,'\'(7.16-10.74]\'',1600,'\'(58.95-62.54]\'','\'(28.28-31.42]\'','\'(-inf-1.6]\'','\'(-inf-0.6]\'','\'(2.79-inf)\'','\'(0.9-1.2]\'','\'(34.4-37.6]\'',40,'\'(90.236-93.689]\'',90,band
19901005,x828,brendls,38218,no,key,yes,benton,gallatin,coated,coated,no,line,yes,motter94,821,'\'(6.4-7.3]\'',tabloid,canadian,1911,'\'(29.75-34.5]\'',52,0.333,'\'(15.19-16.52]\'',80,'\'(0.53375-0.653125]\'',40,'\'(-inf-3.58]\'',1800,'\'(55.36-58.95]\'','\'(40.84-43.98]\'','\'(-inf-1.6]\'','\'(-inf-0.6]\'','\'(2.48-2.79]\'','\'(0.3-0.6]\'','\'(34.4-37.6]\'',40,'\'(104.048-107.501]\'',100,band
19901007,m65,casliving,38059,yes,key,yes,benton,gallatin,uncoated,uncoated,no,line,no,albert70,802,'\'(1.9-2.8]\'',catalog,northus,1910,'\'(39.25-44]\'',52,0.233,'\'(17.85-19.18]\'',70,'\'(0.53375-0.653125]\'',45,'\'(-inf-3.58]\'',1700,'\'(55.36-58.95]\'','\'(40.84-43.98]\'','\'(-inf-1.6]\'','\'(-inf-0.6]\'','\'(2.79-inf)\'','\'(0.6-0.9]\'','\'(31.2-34.4]\'',40,'\'(100.595-104.048]\'',100,noband
19901010,x367,tvguide,25443,yes,key,yes,benton,gallatin,uncoated,uncoated,no,line,yes,motter94,821,'\'(6.4-7.3]\'',tabloid,northus,1911,'\'(44-48.75]\'',54,0.3,'\'(13.86-15.19]\'',65,'\'(0.53375-0.653125]\'',25,'\'(14.32-17.9]\'',1500,'\'(44.59-48.18]\'','\'(37.7-40.84]\'','\'(3.2-4.8]\'','\'(-inf-0.6]\'','\'(2.48-2.79]\'','\'(0.9-1.2]\'','\'(31.2-34.4]\'',40,'\'(110.954-114.407]\'',100,band
19901017,t178,servmerch,38240,yes,key,yes,benton,gallatin,uncoated,uncoated,no,xylol,yes,albert70,802,'\'(6.4-7.3]\'',catalog,mideuropean,1911,'\'(58.25-63]\'',46,0.333,?,80,'\'(0.53375-0.653125]\'',50,'\'(10.74-14.32]\'',1391,'\'(48.18-51.77]\'','\'(34.56-37.7]\'','\'(1.6-3.2]\'','\'(-inf-0.6]\'','\'(2.48-2.79]\'','\'(0.9-1.2]\'','\'(37.6-40.8]\'',40,'\'(110.954-114.407]\'',100,noband
19901017,t200,servmerch,38240,yes,key,yes,benton,gallatin,uncoated,uncoated,no,xylol,yes,albert70,802,'\'(1.9-2.8]\'',catalog,mideuropean,1911,'\'(58.25-63]\'',46,0.333,?,70,'\'(0.53375-0.653125]\'',50,'\'(17.9-21.48]\'',1391,'\'(44.59-48.18]\'','\'(31.42-34.56]\'','\'(-inf-1.6]\'','\'(-inf-0.6]\'','\'(2.48-2.79]\'','\'(0.6-0.9]\'','\'(37.6-40.8]\'',40,'\'(110.954-114.407]\'',100,noband
19901010,r34,target,34522,no,key,yes,benton,gallatin,coated,uncoated,no,line,yes,woodhoe70,816,'\'(8.2-9.1]\'',spiegel,northus,1911,'\'(34.5-39.25]\'',50,0.3,'\'(13.86-15.19]\'',74,'\'(0.175625-0.295]\'',28,'\'(-inf-3.58]\'',2500,'\'(55.36-58.95]\'','\'(40.84-43.98]\'','\'(-inf-1.6]\'','\'(-inf-0.6]\'','\'(2.48-2.79]\'','\'(0.6-0.9]\'','\'(-inf-31.2]\'',40,'\'(110.954-114.407]\'',100,noband
19901010,r15,target,34522,no,key,yes,benton,gallatin,coated,uncoated,no,line,yes,woodhoe70,816,'\'(1.9-2.8]\'',spiegel,northus,1911,'\'(39.25-44]\'',50,0.3,'\'(12.53-13.86]\'',74,'\'(0.175625-0.295]\'',25,'\'(-inf-3.58]\'',2500,'\'(55.36-58.95]\'','\'(40.84-43.98]\'','\'(1.6-3.2]\'','\'(-inf-0.6]\'','\'(2.48-2.79]\'','\'(0.3-0.6]\'','\'(-inf-31.2]\'',40,'\'(110.954-114.407]\'',100,noband
19901008,x420,ames,34587,no,key,yes,benton,gallatin,coated,coated,no,line,no,motter94,827,'\'(1.9-2.8]\'',tabloid,canadian,1911,'\'(29.75-34.5]\'',53,0.333,'\'(13.86-15.19]\'',85,'\'(0.653125-0.7725]\'',30,'\'(14.32-17.9]\'',2290,'\'(48.18-51.77]\'','\'(34.56-37.7]\'','\'(-inf-1.6]\'','\'(-inf-0.6]\'','\'(1.86-2.17]\'','\'(1.2-1.5]\'','\'(31.2-34.4]\'',40,'\'(107.501-110.954]\'',100,noband
19901008,x389,ames,34587,no,key,yes,benton,gallatin,coated,coated,no,line,no,motter94,827,'\'(8.2-9.1]\'',tabloid,canadian,1911,'\'(29.75-34.5]\'',53,0.3,'\'(13.86-15.19]\'',80,'\'(0.653125-0.7725]\'',30,'\'(14.32-17.9]\'',2290,'\'(48.18-51.77]\'','\'(34.56-37.7]\'','\'(-inf-1.6]\'','\'(-inf-0.6]\'','\'(2.48-2.79]\'','\'(0.9-1.2]\'','\'(31.2-34.4]\'',40,'\'(107.501-110.954]\'',100,noband
19901014,x37,toysrus,34756,no,key,no,benton,gallatin,coated,coated,no,line,yes,motter94,824,'\'(1.9-2.8]\'',tabloid,canadian,1911,'\'(29.75-34.5]\'',54,0.333,'\'(15.19-16.52]\'',80,'\'(0.7725-0.891875]\'',30,'\'(-inf-3.58]\'',2100,'\'(58.95-62.54]\'','\'(37.7-40.84]\'','\'(1.6-3.2]\'','\'(-inf-0.6]\'','\'(2.48-2.79]\'','\'(0.9-1.2]\'','\'(-inf-31.2]\'',40,'\'(110.954-114.407]\'',100,noband
19901014,x771,toysrus,34756,no,key,no,benton,gallatin,coated,coated,no,line,yes,motter94,824,'\'(8.2-9.1]\'',tabloid,canadian,1911,'\'(29.75-34.5]\'',54,?,'\'(13.86-15.19]\'',72,'\'(1.130625-inf)\'',30,'\'(3.58-7.16]\'',2100,'\'(58.95-62.54]\'','\'(34.56-37.7]\'','\'(-inf-1.6]\'','\'(-inf-0.6]\'','\'(2.48-2.79]\'','\'(0.9-1.2]\'','\'(-inf-31.2]\'',40,'\'(110.954-114.407]\'',100,noband
19901027,g465,woolwrth,34996,no,key,yes,benton,gallatin,coated,coated,no,line,yes,woodhoe70,816,'\'(8.2-9.1]\'',tabloid,?,1910,'\'(34.5-39.25]\'',43,0.367,'\'(12.53-13.86]\'',75,'\'(0.653125-0.7725]\'',?,'\'(-inf-3.58]\'',2000,'\'(58.95-62.54]\'','\'(34.56-37.7]\'','\'(-inf-1.6]\'','\'(-inf-0.6]\'','\'(2.48-2.79]\'','\'(0.9-1.2]\'','\'(-inf-31.2]\'',40,'\'(97.142-100.595]\'',100,band
19901101,x185,tvguide,25445,yes,key,yes,benton,gallatin,uncoated,uncoated,no,line,yes,motter94,821,'\'(6.4-7.3]\'',tabloid,northus,1910,'\'(48.75-53.5]\'',43,0.267,'\'(13.86-15.19]\'',71,'\'(0.653125-0.7725]\'',28,'\'(7.16-10.74]\'',1500,'\'(51.77-55.36]\'','\'(37.7-40.84]\'','\'(-inf-1.6]\'','\'(-inf-0.6]\'','\'(2.48-2.79]\'','\'(0.9-1.2]\'','\'(31.2-34.4]\'',40,'\'(97.142-100.595]\'',100,band
19901102,x199,kmart,36165,yes,key,yes,benton,gallatin,uncoated,uncoated,no,line,no,motter94,828,'\'(1.9-2.8]\'',tabloid,northus,1910,'\'(63-67.75]\'',43,0.2,'\'(15.19-16.52]\'',78,'\'(0.653125-0.7725]\'',30,'\'(10.74-14.32]\'',2100,'\'(44.59-48.18]\'','\'(40.84-43.98]\'','\'(-inf-1.6]\'','\'(-inf-0.6]\'','\'(1.86-2.17]\'','\'(0.9-1.2]\'','\'(37.6-40.8]\'',40,'\'(97.142-100.595]\'',100,band
19901031,x251,kmart,36165,yes,key,yes,benton,gallatin,uncoated,uncoated,no,line,no,motter94,828,'\'(8.2-9.1]\'',tabloid,northus,1910,'\'(63-67.75]\'',42,0.233,'\'(16.52-17.85]\'',100,'\'(1.01125-1.130625]\'',25,'\'(14.32-17.9]\'',2250,'\'(48.18-51.77]\'','\'(31.42-34.56]\'','\'(-inf-1.6]\'','\'(-inf-0.6]\'','\'(2.48-2.79]\'','\'(0.9-1.2]\'','\'(37.6-40.8]\'',40,'\'(97.142-100.595]\'',100,noband
19901031,x199,kmart,36165,yes,key,yes,benton,gallatin,uncoated,uncoated,no,line,no,motter94,828,'\'(1.9-2.8]\'',tabloid,northus,1910,'\'(63-67.75]\'',42,0.2,'\'(16.52-17.85]\'',80,'\'(0.891875-1.01125]\'',22,'\'(14.32-17.9]\'',2250,'\'(48.18-51.77]\'','\'(34.56-37.7]\'','\'(-inf-1.6]\'','\'(-inf-0.6]\'','\'(2.48-2.79]\'','\'(0.9-1.2]\'','\'(37.6-40.8]\'',40,'\'(97.142-100.595]\'',100,noband
19901102,g519,ames,34588,no,key,yes,benton,gallatin,coated,coated,no,line,yes,woodhoe70,815,'\'(8.2-9.1]\'',tabloid,canadian,1910,'\'(34.5-39.25]\'',43,0.2,'\'(15.19-16.52]\'',76,'\'(0.891875-1.01125]\'',?,'\'(-inf-3.58]\'',2180,'\'(58.95-62.54]\'','\'(34.56-37.7]\'','\'(1.6-3.2]\'','\'(-inf-0.6]\'','\'(2.79-inf)\'','\'(0.9-1.2]\'','\'(31.2-34.4]\'',40,'\'(93.689-97.142]\'',100,band
19901023,g459,wards,36059,?,key,yes,benton,gallatin,coated,coated,no,line,yes,woodhoe70,815,'\'(1.9-2.8]\'',tabloid,canadian,?,?,42,?,'\'(15.19-16.52]\'',73,'\'(0.53375-0.653125]\'',30,'\'(-inf-3.58]\'',2000,'\'(58.95-62.54]\'','\'(37.7-40.84]\'','\'(-inf-1.6]\'','\'(-inf-0.6]\'','\'(2.79-inf)\'','\'(0.9-1.2]\'','\'(-inf-31.2]\'',?,?,?,band
19901027,g465,woolworth,34996,no,key,yes,benton,gallatin,coated,coated,no,line,yes,woodhoe70,816,'\'(8.2-9.1]\'',tabloid,?,1910,'\'(34.5-39.25]\'',43,0.367,'\'(12.53-13.86]\'',75,'\'(0.653125-0.7725]\'',?,'\'(-inf-3.58]\'',2000,'\'(58.95-62.54]\'','\'(34.56-37.7]\'','\'(-inf-1.6]\'','\'(-inf-0.6]\'','\'(2.48-2.79]\'','\'(0.9-1.2]\'','\'(-inf-31.2]\'',40,'\'(97.142-100.595]\'',100,band
19901030,g3,woolworth,34996,no,key,yes,benton,gallatin,coated,coated,no,line,yes,woodhoe70,816,'\'(8.2-9.1]\'',tabloid,?,1910,'\'(34.5-39.25]\'',42,0.3,'\'(15.19-16.52]\'',78,'\'(0.295-0.414375]\'',32,'\'(-inf-3.58]\'',2150,'\'(58.95-62.54]\'','\'(34.56-37.7]\'','\'(-inf-1.6]\'','\'(-inf-0.6]\'','\'(1.55-1.86]\'','\'(0.9-1.2]\'','\'(-inf-31.2]\'',40,'\'(100.595-104.048]\'',100,band
19901031,g98,ames,34588,no,key,yes,benton,gallatin,coated,coated,no,line,no,woodhoe70,815,'\'(1.9-2.8]\'',tabloid,canadian,1910,'\'(39.25-44]\'',43,0.233,'\'(15.19-16.52]\'',85,'\'(0.653125-0.7725]\'',25,'\'(3.58-7.16]\'',2000,'\'(55.36-58.95]\'','\'(34.56-37.7]\'','\'(-inf-1.6]\'','\'(-inf-0.6]\'','\'(2.48-2.79]\'','\'(0.9-1.2]\'','\'(31.2-34.4]\'',40,'\'(93.689-97.142]\'',100,band
19901102,g625,ames,34588,no,key,yes,benton,gallatin,coated,coated,no,line,yes,woodhoe70,815,'\'(1.9-2.8]\'',tabloid,canadian,1910,'\'(39.25-44]\'',43,0.267,'\'(16.52-17.85]\'',78,'\'(0.891875-1.01125]\'',?,'\'(-inf-3.58]\'',2180,'\'(55.36-58.95]\'','\'(37.7-40.84]\'','\'(1.6-3.2]\'','\'(-inf-0.6]\'','\'(2.17-2.48]\'','\'(0.6-0.9]\'','\'(31.2-34.4]\'',40,'\'(93.689-97.142]\'',100,band
19901107,x129,tvguide,25466,yes,key,yes,benton,gallatin,uncoated,uncoated,no,line,yes,motter94,821,'\'(6.4-7.3]\'',tabloid,northus,1910,'\'(48.75-53.5]\'',43,0.267,'\'(16.52-17.85]\'',72,'\'(0.53375-0.653125]\'',30,'\'(10.74-14.32]\'',1600,'\'(44.59-48.18]\'','\'(37.7-40.84]\'','\'(-inf-1.6]\'','\'(-inf-0.6]\'','\'(2.48-2.79]\'','\'(0.9-1.2]\'','\'(31.2-34.4]\'',40,'\'(93.689-97.142]\'',100,band
19901114,x243,tvguide,25477,yes,key,yes,benton,gallatin,uncoated,uncoated,no,line,no,motter94,821,'\'(6.4-7.3]\'',tabloid,northus,1911,'\'(48.75-53.5]\'',42,0.2,'\'(16.52-17.85]\'',73,'\'(0.414375-0.53375]\'',20,'\'(17.9-21.48]\'',1800,'\'(44.59-48.18]\'','\'(34.56-37.7]\'','\'(1.6-3.2]\'','\'(-inf-0.6]\'','\'(2.48-2.79]\'','\'(0.9-1.2]\'','\'(31.2-34.4]\'',40,'\'(97.142-100.595]\'',100,band
19901108,t281,modmat,47106,yes,key,yes,benton,gallatin,uncoated,uncoated,no,line,yes,albert70,802,'\'(1.9-2.8]\'',catalog,canadian,1910,'\'(39.25-44]\'',43,0.2,'\'(12.53-13.86]\'',76,'\'(0.653125-0.7725]\'',52,'\'(3.58-7.16]\'',1726,'\'(51.77-55.36]\'','\'(37.7-40.84]\'','\'(-inf-1.6]\'','\'(-inf-0.6]\'','\'(2.79-inf)\'','\'(0.9-1.2]\'','\'(37.6-40.8]\'',40,'\'(93.689-97.142]\'',100,noband
19901105,g81,hills,34716,no,key,yes,benton,gallatin,uncoated,coated,no,line,yes,woodhoe70,816,'\'(8.2-9.1]\'',tabloid,northus,1910,'\'(39.25-44]\'',43,0.267,'\'(15.19-16.52]\'',79,'\'(0.295-0.414375]\'',35,'\'(-inf-3.58]\'',2400,'\'(58.95-62.54]\'','\'(37.7-40.84]\'','\'(-inf-1.6]\'','\'(-inf-0.6]\'','\'(2.48-2.79]\'','\'(0.9-1.2]\'','\'(34.4-37.6]\'',40,'\'(93.689-97.142]\'',100,noband
19901109,g81,hills,34716,no,key,yes,benton,gallatin,uncoated,coated,no,line,no,woodhoe70,816,'\'(8.2-9.1]\'',tabloid,northus,1910,'\'(39.25-44]\'',51,0.233,'\'(13.86-15.19]\'',70,'\'(0.175625-0.295]\'',24,'\'(-inf-3.58]\'',0,'\'(58.95-62.54]\'','\'(37.7-40.84]\'','\'(-inf-1.6]\'','\'(-inf-0.6]\'','\'(2.79-inf)\'','\'(0.9-1.2]\'','\'(34.4-37.6]\'',40,'\'(97.142-100.595]\'',100,band
19901108,g462,woolworth,34997,no,key,yes,benton,gallatin,coated,coated,no,line,no,woodhoe70,815,'\'(-inf-1.9]\'',tabloid,canadian,1910,'\'(29.75-34.5]\'',43,0.2,'\'(12.53-13.86]\'',80,'\'(0.653125-0.7725]\'',28,'\'(-inf-3.58]\'',1500,'\'(58.95-62.54]\'','\'(34.56-37.7]\'','\'(-inf-1.6]\'','\'(-inf-0.6]\'','\'(-inf-0.31]\'','\'(-inf-0.3]\'','\'(-inf-31.2]\'',40,'\'(97.142-100.595]\'',100,band
19901105,g108,hills,34716,no,key,yes,benton,gallatin,uncoated,coated,no,line,yes,woodhoe70,816,'\'(1.9-2.8]\'',tabloid,northus,1910,'\'(39.25-44]\'',43,0.233,'\'(15.19-16.52]\'',81,'\'(0.414375-0.53375]\'',34,'\'(-inf-3.58]\'',2400,'\'(58.95-62.54]\'','\'(34.56-37.7]\'','\'(4.8-6.4]\'','\'(-inf-0.6]\'',?,'\'(0.9-1.2]\'','\'(34.4-37.6]\'',40,'\'(93.689-97.142]\'',100,noband
19901107,g640,hills,34716,no,key,yes,benton,gallatin,uncoated,coated,no,line,yes,woodhoe70,816,'\'(6.4-7.3]\'',tabloid,northus,1910,'\'(34.5-39.25]\'',43,0.2,'\'(15.19-16.52]\'',80,'\'(0.414375-0.53375]\'',32,'\'(-inf-3.58]\'',2400,'\'(58.95-62.54]\'','\'(34.56-37.7]\'','\'(4.8-6.4]\'','\'(-inf-0.6]\'','\'(2.48-2.79]\'','\'(0.9-1.2]\'','\'(34.4-37.6]\'',40,'\'(93.689-97.142]\'',100,noband
19901105,o28,target,34553,no,key,yes,benton,gallatin,coated,coated,no,line,yes,motter94,827,'\'(1.9-2.8]\'',spiegel,canadian,1910,'\'(44-48.75]\'',42,0.267,'\'(13.86-15.19]\'',75,'\'(0.891875-1.01125]\'',25,'\'(7.16-10.74]\'',1660,'\'(51.77-55.36]\'','\'(34.56-37.7]\'','\'(-inf-1.6]\'','\'(-inf-0.6]\'','\'(2.48-2.79]\'','\'(0.9-1.2]\'','\'(-inf-31.2]\'',40,'\'(100.595-104.048]\'',100,noband
19901105,o21,target,34553,no,key,yes,benton,gallatin,coated,coated,no,line,yes,motter94,827,'\'(8.2-9.1]\'',spiegel,canadian,1910,'\'(44-48.75]\'',42,0.2,'\'(13.86-15.19]\'',80,?,20,'\'(7.16-10.74]\'',?,'\'(51.77-55.36]\'','\'(37.7-40.84]\'','\'(-inf-1.6]\'','\'(-inf-0.6]\'',?,?,'\'(-inf-31.2]\'',40,'\'(100.595-104.048]\'',100,noband
19901107,x127,kmart,36166,no,key,yes,benton,gallatin,uncoated,coated,no,line,no,motter94,828,'\'(1.9-2.8]\'',tabloid,northus,1910,'\'(44-48.75]\'',43,0.2,'\'(15.19-16.52]\'',80,'\'(0.653125-0.7725]\'',30,'\'(-inf-3.58]\'',2200,'\'(48.18-51.77]\'','\'(43.98-47.12]\'','\'(-inf-1.6]\'','\'(-inf-0.6]\'','\'(2.48-2.79]\'','\'(1.2-1.5]\'','\'(34.4-37.6]\'',40,'\'(100.595-104.048]\'',100,noband
19901107,x374,kmart,36166,no,key,yes,benton,gallatin,uncoated,coated,no,line,no,motter94,828,'\'(8.2-9.1]\'',tabloid,northus,1910,'\'(48.75-53.5]\'',43,0.2,'\'(15.19-16.52]\'',72,'\'(0.653125-0.7725]\'',30,'\'(3.58-7.16]\'',2200,'\'(48.18-51.77]\'','\'(43.98-47.12]\'','\'(-inf-1.6]\'','\'(-inf-0.6]\'','\'(2.48-2.79]\'','\'(1.2-1.5]\'','\'(34.4-37.6]\'',40,'\'(93.689-97.142]\'',100,noband
19901106,f601,modmat,47106,yes,key,yes,benton,gallatin,uncoated,uncoated,no,line,no,albert70,802,'\'(6.4-7.3]\'',catalog,northus,1910,'\'(39.25-44]\'',45,0.233,'\'(12.53-13.86]\'',90,'\'(0.653125-0.7725]\'',45,'\'(-inf-3.58]\'',1386,'\'(58.95-62.54]\'','\'(34.56-37.7]\'','\'(-inf-1.6]\'','\'(-inf-0.6]\'','\'(2.79-inf)\'','\'(0.6-0.9]\'','\'(37.6-40.8]\'',40,'\'(93.689-97.142]\'',100,band
19901113,f601,modmat,47106,yes,key,yes,benton,gallatin,uncoated,uncoated,no,line,no,albert70,802,'\'(6.4-7.3]\'',catalog,northus,1910,'\'(39.25-44]\'',42,0.2,'\'(13.86-15.19]\'',65,'\'(0.653125-0.7725]\'',55,'\'(-inf-3.58]\'',1650,'\'(58.95-62.54]\'','\'(34.56-37.7]\'','\'(-inf-1.6]\'','\'(-inf-0.6]\'','\'(2.48-2.79]\'','\'(0.9-1.2]\'','\'(37.6-40.8]\'',40,'\'(93.689-97.142]\'',100,band
19901117,x795,brendls,34442,yes,key,yes,benton,gallatin,uncoated,uncoated,no,line,no,motter94,821,'\'(6.4-7.3]\'',tabloid,northus,1910,'\'(48.75-53.5]\'',43,0.267,'\'(13.86-15.19]\'',74,'\'(0.53375-0.653125]\'',20,'\'(-inf-3.58]\'',1800,'\'(55.36-58.95]\'','\'(40.84-43.98]\'','\'(-inf-1.6]\'','\'(-inf-0.6]\'','\'(2.79-inf)\'','\'(0.9-1.2]\'','\'(37.6-40.8]\'',40,'\'(93.689-97.142]\'',100,band
19901114,g604,woolworth,34997,no,key,yes,benton,gallatin,coated,coated,no,line,yes,woodhoe70,815,'\'(8.2-9.1]\'',tabloid,canadian,1910,'\'(48.75-53.5]\'',47,0.2,'\'(15.19-16.52]\'',74,'\'(0.653125-0.7725]\'',28,'\'(10.74-14.32]\'',2000,'\'(51.77-55.36]\'','\'(34.56-37.7]\'','\'(-inf-1.6]\'','\'(-inf-0.6]\'','\'(2.48-2.79]\'','\'(1.2-1.5]\'','\'(-inf-31.2]\'',40,'\'(97.142-100.595]\'',100,band
19901115,g5,woolworth,34997,no,key,yes,benton,gallatin,coated,coated,no,line,yes,woodhoe70,815,'\'(1.9-2.8]\'',tabloid,canadian,1910,'\'(48.75-53.5]\'',47,0.267,'\'(15.19-16.52]\'',92,'\'(0.653125-0.7725]\'',35,'\'(-inf-3.58]\'',1800,'\'(66.13-69.72]\'','\'(31.42-34.56]\'','\'(-inf-1.6]\'','\'(-inf-0.6]\'','\'(2.48-2.79]\'','\'(0.9-1.2]\'','\'(-inf-31.2]\'',40,'\'(97.142-100.595]\'',100,band
19901125,w357,toysrus,34759,no,key,no,benton,gallatin,coated,coated,no,line,yes,woodhoe70,816,'\'(-inf-1.9]\'',spiegel,canadian,1910,'\'(29.75-34.5]\'',47,0.267,'\'(15.19-16.52]\'',88,'\'(0.295-0.414375]\'',28,'\'(-inf-3.58]\'',2189,'\'(58.95-62.54]\'','\'(34.56-37.7]\'','\'(-inf-1.6]\'','\'(-inf-0.6]\'','\'(2.17-2.48]\'','\'(0.6-0.9]\'','\'(-inf-31.2]\'',40,'\'(97.142-100.595]\'',100,noband
19901125,w364,toysrus,34759,no,key,no,benton,gallatin,coated,coated,no,line,yes,woodhoe70,816,'\'(1.9-2.8]\'',spiegel,canadian,1910,'\'(29.75-34.5]\'',47,0.2,'\'(19.18-20.51]\'',79,'\'(0.295-0.414375]\'',29,'\'(-inf-3.58]\'',2189,'\'(55.36-58.95]\'','\'(40.84-43.98]\'','\'(4.8-6.4]\'','\'(-inf-0.6]\'','\'(2.48-2.79]\'','\'(1.2-1.5]\'','\'(-inf-31.2]\'',40,'\'(97.142-100.595]\'',100,noband
19901119,g60,jcp,34781,no,key,yes,benton,gallatin,uncoated,coated,no,line,yes,woodhoe70,816,'\'(1.9-2.8]\'',tabloid,northus,1910,'\'(67.75-inf)\'',43,0.3,'\'(17.85-19.18]\'',78,'\'(0.414375-0.53375]\'',28,'\'(14.32-17.9]\'',2125,'\'(44.59-48.18]\'','\'(34.56-37.7]\'','\'(4.8-6.4]\'','\'(-inf-0.6]\'','\'(2.79-inf)\'','\'(0.9-1.2]\'','\'(31.2-34.4]\'',40,'\'(97.142-100.595]\'',100,noband
19901119,g412,jcp,34781,no,key,yes,benton,gallatin,uncoated,coated,no,line,yes,woodhoe70,816,'\'(8.2-9.1]\'',tabloid,northus,1910,'\'(67.75-inf)\'',43,0.233,'\'(15.19-16.52]\'',77,'\'(0.7725-0.891875]\'',28,'\'(14.32-17.9]\'',2125,'\'(44.59-48.18]\'','\'(34.56-37.7]\'','\'(1.6-3.2]\'','\'(-inf-0.6]\'','\'(1.55-1.86]\'','\'(0.3-0.6]\'','\'(31.2-34.4]\'',40,'\'(97.142-100.595]\'',100,noband
19901125,w406,toysrus,34759,no,key,no,benton,gallatin,coated,coated,no,line,yes,woodhoe70,816,'\'(8.2-9.1]\'',spiegel,canadian,1910,'\'(39.25-44]\'',47,0.2,'\'(16.52-17.85]\'',78,'\'(0.7725-0.891875]\'',24,'\'(-inf-3.58]\'',2189,'\'(55.36-58.95]\'','\'(40.84-43.98]\'','\'(-inf-1.6]\'','\'(-inf-0.6]\'','\'(1.86-2.17]\'','\'(0.6-0.9]\'','\'(-inf-31.2]\'',40,'\'(97.142-100.595]\'',100,noband
19901116,g628,woolworth,34997,no,key,yes,benton,gallatin,coated,coated,no,line,yes,woodhoe70,815,'\'(1.9-2.8]\'',tabloid,canadian,1910,'\'(29.75-34.5]\'',45,0.233,'\'(13.86-15.19]\'',94,'\'(0.53375-0.653125]\'',25,'\'(-inf-3.58]\'',1800,'\'(66.13-69.72]\'','\'(31.42-34.56]\'','\'(-inf-1.6]\'','\'(-inf-0.6]\'','\'(1.86-2.17]\'','\'(0.9-1.2]\'','\'(-inf-31.2]\'',40,'\'(97.142-100.595]\'',100,band
19901124,w395,toysrus,34259,no,key,no,benton,gallatin,coated,coated,no,line,no,woodhoe70,815,'\'(-inf-1.9]\'',spiegel,canadian,1911,'\'(39.25-44]\'',47,0.267,'\'(13.86-15.19]\'',88,'\'(0.414375-0.53375]\'',34,'\'(-inf-3.58]\'',1700,'\'(58.95-62.54]\'','\'(34.56-37.7]\'','\'(-inf-1.6]\'','\'(-inf-0.6]\'','\'(-inf-0.31]\'','\'(-inf-0.3]\'','\'(-inf-31.2]\'',40,'\'(97.142-100.595]\'',100,band
19901120,t281,modmat,47106,yes,key,yes,benton,gallatin,uncoated,uncoated,no,line,yes,albert70,802,'\'(1.9-2.8]\'',catalog,northus,1911,'\'(39.25-44]\'',46,0.3,'\'(13.86-15.19]\'',70,'\'(0.653125-0.7725]\'',50,'\'(-inf-3.58]\'',1800,'\'(51.77-55.36]\'','\'(43.98-47.12]\'','\'(-inf-1.6]\'','\'(-inf-0.6]\'','\'(2.48-2.79]\'','\'(0.9-1.2]\'','\'(37.6-40.8]\'',40,'\'(97.142-100.595]\'',100,band
19901121,f601,modmat,47106,yes,key,yes,benton,gallatin,uncoated,uncoated,no,line,no,albert70,802,'\'(6.4-7.3]\'',catalog,northus,1911,'\'(39.25-44]\'',50,0.233,'\'(13.86-15.19]\'',70,'\'(0.653125-0.7725]\'',45,'\'(-inf-3.58]\'',1800,'\'(58.95-62.54]\'','\'(37.7-40.84]\'','\'(-inf-1.6]\'','\'(-inf-0.6]\'','\'(2.48-2.79]\'','\'(0.9-1.2]\'','\'(37.6-40.8]\'',40,'\'(97.142-100.595]\'',100,band
19901114,x760,tvguide,25447,yes,key,yes,benton,gallatin,uncoated,uncoated,no,line,no,motter94,821,'\'(1.9-2.8]\'',tabloid,northus,1911,'\'(44-48.75]\'',41,0.2,'\'(13.86-15.19]\'',78,'\'(0.653125-0.7725]\'',20,'\'(14.32-17.9]\'',1800,'\'(48.18-51.77]\'','\'(34.56-37.7]\'','\'(-inf-1.6]\'','\'(-inf-0.6]\'','\'(2.48-2.79]\'','\'(0.9-1.2]\'','\'(31.2-34.4]\'',40,'\'(97.142-100.595]\'',100,noband
19901115,o1,target,34554,no,key,yes,benton,gallatin,uncoated,coated,no,line,yes,motter94,827,'\'(1.9-2.8]\'',spiegel,northus,1910,'\'(44-48.75]\'',42,0.2,'\'(13.86-15.19]\'',75,'\'(0.891875-1.01125]\'',20,'\'(10.74-14.32]\'',1800,'\'(48.18-51.77]\'','\'(37.7-40.84]\'','\'(6.4-8]\'','\'(-inf-0.6]\'','\'(2.48-2.79]\'','\'(0.9-1.2]\'','\'(34.4-37.6]\'',40,'\'(97.142-100.595]\'',100,noband
19901115,o14,target,34554,no,key,yes,benton,gallatin,uncoated,coated,no,line,yes,motter94,827,'\'(8.2-9.1]\'',spiegel,northus,1911,'\'(44-48.75]\'',42,0.333,'\'(13.86-15.19]\'',75,'\'(0.891875-1.01125]\'',20,'\'(-inf-3.58]\'',1800,'\'(55.36-58.95]\'','\'(40.84-43.98]\'','\'(6.4-8]\'','\'(-inf-0.6]\'','\'(2.79-inf)\'','\'(1.8-2.1]\'','\'(34.4-37.6]\'',40,'\'(97.142-100.595]\'',100,noband
19901113,x770,kmart,36167,no,key,?,benton,gallatin,uncoated,coated,no,line,yes,motter94,828,'\'(1.9-2.8]\'',tabloid,scandanavian,1910,'\'(44-48.75]\'',41,0.333,'\'(15.19-16.52]\'',78,'\'(0.891875-1.01125]\'',40,'\'(-inf-3.58]\'',2300,'\'(58.95-62.54]\'','\'(34.56-37.7]\'','\'(3.2-4.8]\'','\'(-inf-0.6]\'','\'(2.48-2.79]\'','\'(1.2-1.5]\'','\'(34.4-37.6]\'',40,'\'(97.142-100.595]\'',100,noband
19901113,x766,kmart,36167,no,key,?,benton,gallatin,uncoated,coated,no,line,yes,motter94,828,'\'(8.2-9.1]\'',tabloid,scandanavian,1910,'\'(44-48.75]\'',41,0.2,'\'(13.86-15.19]\'',74,'\'(0.891875-1.01125]\'',32,'\'(17.9-21.48]\'',2300,'\'(44.59-48.18]\'','\'(28.28-31.42]\'','\'(3.2-4.8]\'','\'(-inf-0.6]\'','\'(2.48-2.79]\'','\'(0.9-1.2]\'','\'(34.4-37.6]\'',40,'\'(93.689-97.142]\'',100,noband
19901206,x001,tvguide,25450,yes,key,yes,benton,gallatin,uncoated,uncoated,no,line,yes,motter94,821,'\'(6.4-7.3]\'',tabloid,northus,1910,'\'(44-48.75]\'',42,0.4,'\'(13.86-15.19]\'',72,'\'(0.53375-0.653125]\'',20,'\'(-inf-3.58]\'',1800,'\'(55.36-58.95]\'','\'(40.84-43.98]\'','\'(-inf-1.6]\'','\'(-inf-0.6]\'','\'(2.48-2.79]\'','\'(0.9-1.2]\'','\'(31.2-34.4]\'',40,'\'(104.048-107.501]\'',100,noband
19901206,g81,lurias,36805,yes,key,yes,benton,gallatin,uncoated,uncoated,no,line,yes,woodhoe70,815,'\'(8.2-9.1]\'',tabloid,mideuropean,1910,'\'(48.75-53.5]\'',42,0.267,'\'(15.19-16.52]\'',88,'\'(0.653125-0.7725]\'',33,'\'(10.74-14.32]\'',1650,'\'(51.77-55.36]\'','\'(34.56-37.7]\'','\'(-inf-1.6]\'','\'(-inf-0.6]\'','\'(2.48-2.79]\'','\'(0.9-1.2]\'','\'(37.6-40.8]\'',40,'\'(104.048-107.501]\'',100,noband
19901206,g5,lurias,36805,yes,key,yes,benton,gallatin,uncoated,uncoated,no,line,no,woodhoe70,815,'\'(1.9-2.8]\'',tabloid,mideuropean,1910,'\'(48.75-53.5]\'',42,0.3,'\'(16.52-17.85]\'',88,'\'(0.653125-0.7725]\'',30,'\'(-inf-3.58]\'',1600,'\'(58.95-62.54]\'','\'(25.14-28.28]\'','\'(4.8-6.4]\'','\'(-inf-0.6]\'','\'(2.48-2.79]\'','\'(0.9-1.2]\'','\'(37.6-40.8]\'',40,'\'(104.048-107.501]\'',100,band
19901206,g5,lurias,36805,yes,key,yes,benton,gallatin,uncoated,cover,no,line,yes,woodhoe70,815,'\'(1.9-2.8]\'',tabloid,mideuropean,1910,'\'(48.75-53.5]\'',42,0.233,'\'(13.86-15.19]\'',90,'\'(0.891875-1.01125]\'',35,'\'(-inf-3.58]\'',1650,'\'(55.36-58.95]\'','\'(43.98-47.12]\'','\'(-inf-1.6]\'','\'(-inf-0.6]\'','\'(2.48-2.79]\'','\'(0.9-1.2]\'','\'(37.6-40.8]\'',40,'\'(97.142-100.595]\'',100,band
19901206,x019,tvguide,25450,yes,key,yes,benton,gallatin,uncoated,uncoated,no,line,yes,motter94,821,'\'(1.9-2.8]\'',tabloid,northus,?,'\'(48.75-53.5]\'',42,0.367,'\'(15.19-16.52]\'',73,'\'(0.53375-0.653125]\'',20,'\'(3.58-7.16]\'',1800,'\'(58.95-62.54]\'','\'(34.56-37.7]\'','\'(-inf-1.6]\'','\'(-inf-0.6]\'','\'(2.48-2.79]\'','\'(0.9-1.2]\'','\'(31.2-34.4]\'',40,'\'(104.048-107.501]\'',100,noband
19901208,t351,austads,38120,yes,key,yes,?,gallatin,uncoated,cover,no,line,yes,woodhoe70,815,'\'(1.9-2.8]\'',catalog,northus,1910,'\'(44-48.75]\'',43,0.3,'\'(19.18-20.51]\'',84,'\'(0.53375-0.653125]\'',33,?,1200,?,?,'\'(-inf-1.6]\'','\'(-inf-0.6]\'','\'(2.48-2.79]\'','\'(0.3-0.6]\'','\'(37.6-40.8]\'',40,'\'(104.048-107.501]\'',100,band
19901209,x304,eckerds,34692,no,key,yes,benton,gallatin,coated,uncoated,no,line,no,motter94,824,'\'(1.9-2.8]\'',tabloid,canadian,1910,'\'(44-48.75]\'',42,0.3,'\'(13.86-15.19]\'',70,'\'(0.7725-0.891875]\'',40,'\'(-inf-3.58]\'',1500,'\'(55.36-58.95]\'','\'(40.84-43.98]\'','\'(1.6-3.2]\'','\'(-inf-0.6]\'','\'(1.86-2.17]\'','\'(0.9-1.2]\'','\'(-inf-31.2]\'',40,'\'(97.142-100.595]\'',100,band
19901209,w30,sheplers,35001,yes,key,yes,benton,gallatin,uncoated,uncoated,no,line,yes,woodhoe70,816,'\'(8.2-9.1]\'',spiegel,northus,1910,'\'(39.25-44]\'',42,0.2,'\'(12.53-13.86]\'',84,'\'(0.414375-0.53375]\'',32,'\'(-inf-3.58]\'',1750,'\'(58.95-62.54]\'','\'(34.56-37.7]\'','\'(-inf-1.6]\'','\'(-inf-0.6]\'','\'(2.48-2.79]\'','\'(0.9-1.2]\'','\'(37.6-40.8]\'',40,'\'(97.142-100.595]\'',100,noband
19901209,x220,guideposts,23048,yes,key,yes,benton,gallatin,uncoated,uncoated,no,line,yes,motter94,821,'\'(6.4-7.3]\'',tabloid,?,1910,'\'(39.25-44]\'',42,0.333,'\'(15.19-16.52]\'',64,'\'(0.53375-0.653125]\'',20,'\'(7.16-10.74]\'',1550,'\'(51.77-55.36]\'','\'(34.56-37.7]\'','\'(-inf-1.6]\'','\'(-inf-0.6]\'','\'(1.86-2.17]\'','\'(0.3-0.6]\'','\'(37.6-40.8]\'',40,'\'(104.048-107.501]\'',100,noband
19901209,x809,guideposts,23048,yes,key,yes,benton,gallatin,uncoated,uncoated,no,line,yes,motter94,821,'\'(1.9-2.8]\'',tabloid,?,1910,'\'(39.25-44]\'',42,0.333,'\'(15.19-16.52]\'',78,'\'(0.53375-0.653125]\'',20,'\'(-inf-3.58]\'',1550,'\'(58.95-62.54]\'','\'(34.56-37.7]\'','\'(-inf-1.6]\'','\'(-inf-0.6]\'','\'(2.48-2.79]\'','\'(0.9-1.2]\'','\'(37.6-40.8]\'',40,'\'(104.048-107.501]\'',100,noband
19901209,m208,abbeypress,27490,no,key,yes,benton,gallatin,uncoated,coated,no,line,no,albert70,802,'\'(1.9-2.8]\'',catalog,northus,1910,'\'(29.75-34.5]\'',42,0.233,'\'(15.19-16.52]\'',70,'\'(0.53375-0.653125]\'',46,'\'(-inf-3.58]\'',1350,'\'(58.95-62.54]\'','\'(37.7-40.84]\'','\'(-inf-1.6]\'','\'(-inf-0.6]\'','\'(2.79-inf)\'','\'(0.9-1.2]\'','\'(31.2-34.4]\'',40,'\'(97.142-100.595]\'',100,noband
19901209,f466,abbeypress,27490,no,key,yes,benton,gallatin,uncoated,coated,no,line,no,albert70,802,'\'(6.4-7.3]\'',catalog,northus,1910,'\'(29.75-34.5]\'',42,0.233,'\'(15.19-16.52]\'',70,'\'(0.53375-0.653125]\'',48,'\'(-inf-3.58]\'',1350,'\'(62.54-66.13]\'','\'(34.56-37.7]\'','\'(-inf-1.6]\'','\'(-inf-0.6]\'','\'(2.79-inf)\'','\'(0.9-1.2]\'','\'(31.2-34.4]\'',40,'\'(97.142-100.595]\'',100,noband
19901219,x295,tvguide,25452,yes,key,yes,benton,gallatin,uncoated,uncoated,no,line,yes,motter94,821,'\'(6.4-7.3]\'',tabloid,northus,1910,'\'(63-67.75]\'',50,0.167,'\'(15.19-16.52]\'',73,'\'(0.7725-0.891875]\'',20,'\'(17.9-21.48]\'',1800,'\'(44.59-48.18]\'','\'(31.42-34.56]\'','\'(-inf-1.6]\'','\'(-inf-0.6]\'','\'(2.48-2.79]\'','\'(0.6-0.9]\'','\'(31.2-34.4]\'',40,'\'(107.501-110.954]\'',100,band
19901222,i010,austads,38121,yes,key,yes,benton,gallatin,uncoated,uncoated,no,line,yes,woodhoe70,815,'\'(8.2-9.1]\'',catalog,canadian,1911,'\'(44-48.75]\'',60,0.3,'\'(15.19-16.52]\'',88,'\'(0.653125-0.7725]\'',33,'\'(-inf-3.58]\'',1500,'\'(55.36-58.95]\'','\'(40.84-43.98]\'','\'(-inf-1.6]\'','\'(-inf-0.6]\'','\'(2.79-inf)\'','\'(0.9-1.2]\'','\'(37.6-40.8]\'',40,'\'(100.595-104.048]\'',100,band
19901209,w785,sheplers,35001,yes,key,yes,benton,gallatin,uncoated,cover,no,line,no,woodhoe70,816,'\'(1.9-2.8]\'',spiegel,northus,1910,'\'(39.25-44]\'',42,0.267,'\'(13.86-15.19]\'',78,'\'(0.891875-1.01125]\'',28,'\'(-inf-3.58]\'',1800,'\'(58.95-62.54]\'','\'(37.7-40.84]\'','\'(-inf-1.6]\'','\'(-inf-0.6]\'','\'(2.48-2.79]\'','\'(1.8-2.1]\'','\'(37.6-40.8]\'',40,'\'(97.142-100.595]\'',100,band
19901211,i349,austads,38121,yes,key,yes,benton,gallatin,uncoated,cover,no,line,no,woodhoe70,815,'\'(1.9-2.8]\'',catalog,canadian,1910,'\'(44-48.75]\'',40,0.3,'\'(15.19-16.52]\'',89,'\'(0.53375-0.653125]\'',22,'\'(-inf-3.58]\'',1300,'\'(58.95-62.54]\'','\'(37.7-40.84]\'','\'(-inf-1.6]\'','\'(-inf-0.6]\'','\'(2.48-2.79]\'','\'(0.9-1.2]\'','\'(37.6-40.8]\'',40,'\'(104.048-107.501]\'',100,band
19901212,i317,austads,38121,yes,key,yes,benton,gallatin,uncoated,cover,no,line,no,woodhoe70,815,'\'(1.9-2.8]\'',catalog,canadian,1910,'\'(44-48.75]\'',42,0.267,'\'(13.86-15.19]\'',89,'\'(0.653125-0.7725]\'',26,'\'(-inf-3.58]\'',1450,'\'(55.36-58.95]\'','\'(40.84-43.98]\'','\'(-inf-1.6]\'','\'(-inf-0.6]\'','\'(2.48-2.79]\'','\'(0.9-1.2]\'','\'(37.6-40.8]\'',40,'\'(100.595-104.048]\'',100,band
19901215,f219,downs,35525,yes,key,yes,benton,gallatin,uncoated,uncoated,no,line,no,woodhoe70,815,'\'(8.2-9.1]\'',catalog,northus,1910,'\'(39.25-44]\'',54,0.3,'\'(13.86-15.19]\'',87,?,29,'\'(-inf-3.58]\'',1000,'\'(55.36-58.95]\'','\'(40.84-43.98]\'','\'(-inf-1.6]\'','\'(-inf-0.6]\'','\'(2.79-inf)\'','\'(0.9-1.2]\'','\'(37.6-40.8]\'',40,'\'(104.048-107.501]\'',100,band
19901212,i331,austads,38121,yes,key,yes,benton,gallatin,uncoated,uncoated,no,line,no,woodhoe70,815,'\'(8.2-9.1]\'',catalog,canadian,1910,'\'(44-48.75]\'',42,0.367,'\'(15.19-16.52]\'',83,'\'(0.53375-0.653125]\'',30,'\'(-inf-3.58]\'',1950,'\'(55.36-58.95]\'','\'(40.84-43.98]\'','\'(-inf-1.6]\'','\'(-inf-0.6]\'','\'(2.48-2.79]\'','\'(0.9-1.2]\'','\'(37.6-40.8]\'',40,'\'(104.048-107.501]\'',100,band
19901215,f121,hanoverhse,34099,yes,key,yes,benton,gallatin,uncoated,uncoated,no,line,no,albert70,802,'\'(1.9-2.8]\'',catalog,northus,1910,'\'(44-48.75]\'',41,0.267,'\'(12.53-13.86]\'',70,'\'(0.653125-0.7725]\'',50,'\'(-inf-3.58]\'',1700,'\'(58.95-62.54]\'','\'(37.7-40.84]\'','\'(-inf-1.6]\'','\'(-inf-0.6]\'','\'(2.79-inf)\'','\'(0.6-0.9]\'','\'(37.6-40.8]\'',40,'\'(114.407-inf)\'',100,noband
19901215,f133,hanoverhse,34099,yes,key,yes,benton,gallatin,uncoated,uncoated,no,line,no,albert70,802,'\'(6.4-7.3]\'',catalog,northus,1910,'\'(44-48.75]\'',41,0.267,'\'(12.53-13.86]\'',70,'\'(0.653125-0.7725]\'',50,'\'(-inf-3.58]\'',1700,'\'(62.54-66.13]\'','\'(34.56-37.7]\'','\'(-inf-1.6]\'','\'(-inf-0.6]\'','\'(2.79-inf)\'','\'(0.6-0.9]\'','\'(37.6-40.8]\'',40,'\'(114.407-inf)\'',100,noband
19901209,w30,sheplers,35001,yes,key,yes,benton,gallatin,uncoated,uncoated,no,line,no,woodhoe70,816,'\'(8.2-9.1]\'',spiegel,northus,?,'\'(34.5-39.25]\'',42,0.2,'\'(15.19-16.52]\'',80,'\'(0.891875-1.01125]\'',26,'\'(-inf-3.58]\'',1800,'\'(58.95-62.54]\'','\'(34.56-37.7]\'','\'(1.6-3.2]\'','\'(-inf-0.6]\'','\'(2.48-2.79]\'','\'(1.8-2.1]\'','\'(37.6-40.8]\'',40,'\'(97.142-100.595]\'',100,noband
19901219,x837,tvguide,25452,yes,key,yes,benton,gallatin,uncoated,uncoated,no,line,yes,motter94,821,'\'(1.9-2.8]\'',tabloid,northus,1910,'\'(63-67.75]\'',50,0.2,'\'(13.86-15.19]\'',75,'\'(0.53375-0.653125]\'',20,'\'(17.9-21.48]\'',1800,'\'(44.59-48.18]\'','\'(31.42-34.56]\'','\'(-inf-1.6]\'','\'(-inf-0.6]\'','\'(2.48-2.79]\'','\'(0.3-0.6]\'','\'(31.2-34.4]\'',40,'\'(107.501-110.954]\'',100,noband
19901212,x819,tvguide,25451,yes,key,yes,benton,gallatin,uncoated,uncoated,no,line,yes,motter94,821,'\'(6.4-7.3]\'',tabloid,northus,1910,'\'(53.5-58.25]\'',40,0.3,'\'(13.86-15.19]\'',69,'\'(0.53375-0.653125]\'',20,'\'(17.9-21.48]\'',1450,'\'(-inf-44.59]\'','\'(34.56-37.7]\'','\'(-inf-1.6]\'','\'(-inf-0.6]\'','\'(2.48-2.79]\'','\'(0.9-1.2]\'','\'(31.2-34.4]\'',40,'\'(104.048-107.501]\'',100,noband
19901230,b125,modmat,48201,yes,key,yes,benton,gallatin,uncoated,uncoated,no,line,yes,woodhoe70,815,'\'(1.9-2.8]\'',catalog,northus,1911,'\'(58.25-63]\'',52,0.433,'\'(13.86-15.19]\'',78,'\'(0.653125-0.7725]\'',28,'\'(3.58-7.16]\'',1400,'\'(55.36-58.95]\'','\'(34.56-37.7]\'','\'(3.2-4.8]\'','\'(-inf-0.6]\'','\'(2.48-2.79]\'','\'(0.6-0.9]\'','\'(37.6-40.8]\'',40,'\'(100.595-104.048]\'',100,band
19901210,r32,target,34556,no,key,yes,benton,gallatin,coated,coated,no,line,yes,woodhoe70,816,'\'(1.9-2.8]\'',spiegel,canadian,1910,'\'(34.5-39.25]\'',42,0.2,'\'(15.19-16.52]\'',70,'\'(0.295-0.414375]\'',28,'\'(-inf-3.58]\'',2400,'\'(55.36-58.95]\'','\'(40.84-43.98]\'','\'(1.6-3.2]\'','\'(-inf-0.6]\'','\'(2.79-inf)\'','\'(0.6-0.9]\'','\'(-inf-31.2]\'',40,'\'(104.048-107.501]\'',100,band
19901215,f372,downs,35525,yes,key,yes,benton,gallatin,uncoated,uncoated,no,line,yes,woodhoe70,815,'\'(1.9-2.8]\'',catalog,northus,1910,'\'(39.25-44]\'',54,0.267,'\'(21.84-23.17]\'',77,'\'(0.53375-0.653125]\'',32,'\'(3.58-7.16]\'',1000,'\'(55.36-58.95]\'','\'(34.56-37.7]\'','\'(-inf-1.6]\'','\'(-inf-0.6]\'','\'(2.79-inf)\'','\'(0.9-1.2]\'','\'(37.6-40.8]\'',40,'\'(104.048-107.501]\'',100,band
19901212,r1,target,34556,no,key,yes,benton,gallatin,coated,coated,no,line,yes,woodhoe70,816,'\'(8.2-9.1]\'',spiegel,canadian,1910,'\'(34.5-39.25]\'',40,0.2,'\'(13.86-15.19]\'',80,'\'(0.175625-0.295]\'',24,'\'(-inf-3.58]\'',2400,'\'(55.36-58.95]\'','\'(40.84-43.98]\'','\'(1.6-3.2]\'','\'(-inf-0.6]\'','\'(2.48-2.79]\'','\'(0.6-0.9]\'','\'(-inf-31.2]\'',40,'\'(104.048-107.501]\'',100,noband
19901218,r3,target,34556,no,key,yes,benton,gallatin,coated,coated,no,line,yes,woodhoe70,816,'\'(1.9-2.8]\'',spiegel,canadian,1910,'\'(34.5-39.25]\'',50,?,'\'(15.19-16.52]\'',95,'\'(0.53375-0.653125]\'',26,'\'(-inf-3.58]\'',2350,'\'(58.95-62.54]\'','\'(34.56-37.7]\'','\'(-inf-1.6]\'','\'(-inf-0.6]\'','\'(2.48-2.79]\'','\'(0.3-0.6]\'','\'(-inf-31.2]\'',40,'\'(104.048-107.501]\'',100,noband
19901214,r9,target,34556,no,key,yes,benton,gallatin,coated,coated,no,line,yes,woodhoe70,816,'\'(1.9-2.8]\'',spiegel,canadian,1910,'\'(34.5-39.25]\'',41,?,'\'(13.86-15.19]\'',80,'\'(0.414375-0.53375]\'',30,'\'(-inf-3.58]\'',2398,'\'(55.36-58.95]\'','\'(40.84-43.98]\'','\'(8-9.6]\'','\'(-inf-0.6]\'','\'(2.48-2.79]\'','\'(0.6-0.9]\'','\'(-inf-31.2]\'',40,'\'(104.048-107.501]\'',100,noband
19901211,x342,ames,34590,no,key,yes,benton,gallatin,coated,coated,no,line,yes,motter94,827,'\'(8.2-9.1]\'',tabloid,canadian,1910,'\'(48.75-53.5]\'',40,0.3,'\'(13.86-15.19]\'',72,'\'(0.653125-0.7725]\'',30,'\'(-inf-3.58]\'',2233,'\'(55.36-58.95]\'','\'(40.84-43.98]\'','\'(6.4-8]\'','\'(-inf-0.6]\'','\'(1.24-1.55]\'','\'(0.9-1.2]\'','\'(31.2-34.4]\'',40,'\'(104.048-107.501]\'',100,noband
19901211,x242,ames,34590,no,key,yes,benton,gallatin,coated,coated,no,line,yes,motter94,827,'\'(1.9-2.8]\'',tabloid,canadian,1910,'\'(48.75-53.5]\'',40,0.233,'\'(13.86-15.19]\'',88,'\'(0.653125-0.7725]\'',30,'\'(-inf-3.58]\'',2233,'\'(55.36-58.95]\'','\'(40.84-43.98]\'','\'(6.4-8]\'','\'(-inf-0.6]\'','\'(2.79-inf)\'','\'(0.9-1.2]\'','\'(31.2-34.4]\'',40,'\'(104.048-107.501]\'',100,noband
19901214,x221,eckerds,34693,no,key,yes,benton,gallatin,coated,coated,no,line,yes,motter94,828,'\'(1.9-2.8]\'',tabloid,canadian,?,'\'(44-48.75]\'',41,0.2,'\'(15.19-16.52]\'',74,'\'(0.891875-1.01125]\'',30,'\'(-inf-3.58]\'',1800,'\'(58.95-62.54]\'','\'(34.56-37.7]\'','\'(-inf-1.6]\'','\'(-inf-0.6]\'','\'(2.48-2.79]\'','\'(0.9-1.2]\'','\'(-inf-31.2]\'',40,'\'(104.048-107.501]\'',100,noband
19901214,x108,eckerds,34693,no,key,yes,benton,gallatin,coated,coated,no,line,yes,motter94,828,'\'(8.2-9.1]\'',tabloid,canadian,1910,'\'(48.75-53.5]\'',41,0.2,'\'(15.19-16.52]\'',80,'\'(0.891875-1.01125]\'',43,'\'(-inf-3.58]\'',1800,'\'(58.95-62.54]\'','\'(34.56-37.7]\'','\'(-inf-1.6]\'','\'(-inf-0.6]\'','\'(2.48-2.79]\'','\'(1.2-1.5]\'','\'(-inf-31.2]\'',40,'\'(104.048-107.501]\'',100,noband
19901218,x80,eckerds,34694,no,key,yes,benton,gallatin,coated,coated,no,line,yes,motter94,824,'\'(1.9-2.8]\'',tabloid,canadian,1910,'\'(29.75-34.5]\'',41,0.333,'\'(15.19-16.52]\'',74,'\'(0.7725-0.891875]\'',30,'\'(-inf-3.58]\'',1900,'\'(55.36-58.95]\'','\'(37.7-40.84]\'','\'(3.2-4.8]\'','\'(-inf-0.6]\'','\'(1.86-2.17]\'','\'(1.2-1.5]\'','\'(-inf-31.2]\'',40,'\'(110.954-114.407]\'',100,noband
19901218,f482,downs,35525,yes,key,yes,benton,gallatin,uncoated,uncoated,no,line,yes,woodhoe70,815,'\'(1.9-2.8]\'',catalog,northus,1910,'\'(39.25-44]\'',41,0.267,'\'(15.19-16.52]\'',76,'\'(0.653125-0.7725]\'',28,'\'(3.58-7.16]\'',1750,'\'(58.95-62.54]\'','\'(34.56-37.7]\'','\'(3.2-4.8]\'','\'(-inf-0.6]\'','\'(2.79-inf)\'','\'(0.9-1.2]\'','\'(37.6-40.8]\'',40,'\'(114.407-inf)\'',100,noband
19901230,x388,tvguide,25502,yes,key,yes,benton,gallatin,uncoated,uncoated,no,line,yes,motter94,821,'\'(1.9-2.8]\'',tabloid,northus,1911,'\'(48.75-53.5]\'',52,0.267,'\'(15.19-16.52]\'',78,'\'(0.653125-0.7725]\'',30,'\'(10.74-14.32]\'',1250,'\'(48.18-51.77]\'','\'(50.26-inf)\'','\'(-inf-1.6]\'','\'(-inf-0.6]\'','\'(2.79-inf)\'','\'(0.9-1.2]\'','\'(31.2-34.4]\'',40,'\'(100.595-104.048]\'',100,band
19910810,i309,childcraft,37001,yes,key,yes,benton,gallatin,uncoated,uncoated,no,line,no,albert70,802,'\'(6.4-7.3]\'',catalog,?,1911,'\'(44-48.75]\'',62,0.233,'\'(13.86-15.19]\'',76,'\'(0.653125-0.7725]\'',50,'\'(-inf-3.58]\'',1500,'\'(55.36-58.95]\'','\'(40.84-43.98]\'','\'(-inf-1.6]\'','\'(-inf-0.6]\'','\'(2.79-inf)\'','\'(0.9-1.2]\'','\'(37.6-40.8]\'',40,'\'(100.595-104.048]\'',100,band
19910815,x381,eckerds,35462,no,key,yes,benton,gallatin,coated,coated,no,line,no,motter94,824,'\'(1.9-2.8]\'',tabloid,?,?,'\'(39.25-44]\'',58,0.2,'\'(16.52-17.85]\'',75,'\'(-inf-0.175625]\'',30,'\'(-inf-3.58]\'',1900,'\'(55.36-58.95]\'','\'(40.84-43.98]\'','\'(-inf-1.6]\'','\'(-inf-0.6]\'','\'(2.48-2.79]\'','\'(1.2-1.5]\'','\'(-inf-31.2]\'',40,'\'(100.595-104.048]\'',100,band
19910829,i303,childcraft,37001,yes,key,yes,benton,gallatin,uncoated,uncoated,no,line,yes,albert70,802,'\'(6.4-7.3]\'',catalog,?,1910,'\'(58.25-63]\'',60,0.233,'\'(13.86-15.19]\'',80,'\'(0.653125-0.7725]\'',56,'\'(10.74-14.32]\'',1380,'\'(44.59-48.18]\'','\'(37.7-40.84]\'','\'(-inf-1.6]\'','\'(-inf-0.6]\'','\'(2.79-inf)\'','\'(0.9-1.2]\'','\'(37.6-40.8]\'',40,'\'(104.048-107.501]\'',100,noband
19910712,t368,abbey,24780,no,key,yes,benton,gallatin,uncoated,coated,no,line,yes,woodhoe70,816,'\'(8.2-9.1]\'',catalog,?,1911,'\'(44-48.75]\'',65,0.2,'\'(13.86-15.19]\'',80,'\'(0.414375-0.53375]\'',27,'\'(10.74-14.32]\'',1725,'\'(51.77-55.36]\'','\'(34.56-37.7]\'','\'(1.6-3.2]\'','\'(-inf-0.6]\'','\'(2.79-inf)\'','\'(0.9-1.2]\'','\'(31.2-34.4]\'',40,'\'(100.595-104.048]\'',100,noband
19910804,y270,kmart,37371,no,key,yes,benton,gallatin,uncoated,coated,no,line,no,woodhoe70,816,'\'(1.9-2.8]\'',tabloid,?,1910,'\'(39.25-44]\'',58,0.2,'\'(15.19-16.52]\'',84,'\'(0.295-0.414375]\'',25,'\'(7.16-10.74]\'',2000,'\'(51.77-55.36]\'','\'(37.7-40.84]\'','\'(4.8-6.4]\'','\'(-inf-0.6]\'','\'(2.79-inf)\'','\'(0.9-1.2]\'','\'(34.4-37.6]\'',40,'\'(100.595-104.048]\'',100,noband
19910804,y228,kmart,37371,no,key,yes,benton,gallatin,uncoated,coated,no,line,yes,woodhoe70,816,'\'(8.2-9.1]\'',tabloid,?,1910,'\'(39.25-44]\'',58,0.267,'\'(13.86-15.19]\'',80,'\'(0.175625-0.295]\'',?,'\'(-inf-3.58]\'',2000,'\'(51.77-55.36]\'','\'(40.84-43.98]\'','\'(-inf-1.6]\'','\'(-inf-0.6]\'','\'(2.48-2.79]\'','\'(0.9-1.2]\'','\'(34.4-37.6]\'',40,'\'(100.595-104.048]\'',100,noband
19910712,m254,abbey,24780,no,key,yes,benton,gallatin,uncoated,coated,no,line,yes,woodhoe70,816,'\'(1.9-2.8]\'',catalog,?,1911,'\'(44-48.75]\'',65,0.2,'\'(15.19-16.52]\'',87,'\'(0.175625-0.295]\'',?,'\'(3.58-7.16]\'',1725,'\'(55.36-58.95]\'','\'(37.7-40.84]\'','\'(1.6-3.2]\'','\'(-inf-0.6]\'','\'(2.79-inf)\'','\'(0.6-0.9]\'','\'(31.2-34.4]\'',40,'\'(100.595-104.048]\'',100,noband
19910719,r15,target,88231,no,key,yes,benton,gallatin,coated,coated,no,line,yes,woodhoe70,816,'\'(8.2-9.1]\'',spiegel,?,1910,'\'(39.25-44]\'',62,0.2,'\'(12.53-13.86]\'',91,'\'(0.295-0.414375]\'',32,'\'(3.58-7.16]\'',2300,'\'(55.36-58.95]\'','\'(37.7-40.84]\'','\'(1.6-3.2]\'','\'(-inf-0.6]\'','\'(2.48-2.79]\'','\'(0.9-1.2]\'','\'(31.2-34.4]\'',40,'\'(97.142-100.595]\'',100,noband
19910719,r43,target,88231,no,key,yes,benton,gallatin,coated,coated,no,line,yes,woodhoe70,816,'\'(1.9-2.8]\'',spiegel,?,1910,'\'(39.25-44]\'',62,0.2,'\'(13.86-15.19]\'',80,'\'(0.414375-0.53375]\'',28,'\'(-inf-3.58]\'',2303,'\'(55.36-58.95]\'','\'(37.7-40.84]\'','\'(1.6-3.2]\'','\'(-inf-0.6]\'','\'(2.48-2.79]\'','\'(0.3-0.6]\'','\'(31.2-34.4]\'',40,'\'(97.142-100.595]\'',100,noband
19910727,x742,ames,37182,no,key,yes,benton,gallatin,coated,coated,no,line,yes,motter94,821,'\'(1.9-2.8]\'',tabloid,?,1911,'\'(44-48.75]\'',58,0.2,'\'(13.86-15.19]\'',75,'\'(0.53375-0.653125]\'',20,'\'(7.16-10.74]\'',2100,'\'(51.77-55.36]\'','\'(34.56-37.7]\'','\'(-inf-1.6]\'','\'(-inf-0.6]\'','\'(2.48-2.79]\'','\'(0.6-0.9]\'','\'(31.2-34.4]\'',40,'\'(100.595-104.048]\'',100,noband
19910727,x823,ames,37182,no,key,yes,benton,gallatin,coated,coated,no,line,yes,motter94,821,'\'(6.4-7.3]\'',tabloid,?,1911,'\'(44-48.75]\'',58,0.2,'\'(13.86-15.19]\'',72,'\'(0.53375-0.653125]\'',25,'\'(7.16-10.74]\'',2100,'\'(51.77-55.36]\'','\'(34.56-37.7]\'','\'(4.8-6.4]\'','\'(-inf-0.6]\'','\'(2.48-2.79]\'','\'(0.6-0.9]\'','\'(31.2-34.4]\'',40,'\'(100.595-104.048]\'',100,noband
19910718,x197,tvguide,25530,yes,key,yes,benton,gallatin,uncoated,uncoated,no,line,yes,motter94,821,'\'(6.4-7.3]\'',tabloid,?,1910,'\'(39.25-44]\'',58,0.233,'\'(15.19-16.52]\'',78,'\'(0.414375-0.53375]\'',25,'\'(-inf-3.58]\'',1800,'\'(55.36-58.95]\'','\'(40.84-43.98]\'','\'(4.8-6.4]\'','\'(-inf-0.6]\'','\'(2.48-2.79]\'','\'(0.9-1.2]\'','\'(31.2-34.4]\'',40,'\'(100.595-104.048]\'',100,noband
19911124,f25,bestprod,37970,no,key,yes,benton,gallatin,uncoated,coated,no,line,yes,albert70,802,'\'(1.9-2.8]\'',catalog,?,1910,'\'(-inf-29.75]\'',41,0.267,'\'(16.52-17.85]\'',80,'\'(0.653125-0.7725]\'',50,'\'(-inf-3.58]\'',1490,'\'(55.36-58.95]\'','\'(37.7-40.84]\'','\'(-inf-1.6]\'','\'(-inf-0.6]\'','\'(2.79-inf)\'','\'(0.9-1.2]\'','\'(34.4-37.6]\'',40,'\'(100.595-104.048]\'',100,noband
19911124,f169,bestprod,37970,no,key,yes,benton,gallatin,uncoated,coated,no,line,yes,albert70,802,'\'(6.4-7.3]\'',catalog,?,1911,'\'(34.5-39.25]\'',41,0.267,'\'(16.52-17.85]\'',78,'\'(0.653125-0.7725]\'',50,'\'(7.16-10.74]\'',1490,'\'(51.77-55.36]\'','\'(37.7-40.84]\'','\'(-inf-1.6]\'','\'(-inf-0.6]\'','\'(2.79-inf)\'','\'(0.9-1.2]\'','\'(34.4-37.6]\'',40,'\'(104.048-107.501]\'',100,noband
19910829,i325,childcraft,37001,yes,key,yes,benton,gallatin,uncoated,uncoated,no,line,yes,albert70,802,'\'(1.9-2.8]\'',catalog,?,1910,'\'(58.25-63]\'',60,0.2,'\'(13.86-15.19]\'',80,'\'(0.653125-0.7725]\'',50,'\'(7.16-10.74]\'',1380,'\'(44.59-48.18]\'','\'(40.84-43.98]\'','\'(-inf-1.6]\'','\'(-inf-0.6]\'','\'(2.79-inf)\'','\'(0.9-1.2]\'','\'(37.6-40.8]\'',40,'\'(104.048-107.501]\'',100,noband
19910807,f629,abbey,24780,no,key,yes,benton,gallatin,uncoated,coated,no,line,yes,albert70,802,'\'(1.9-2.8]\'',catalog,?,1910,'\'(39.25-44]\'',60,0.2,'\'(13.86-15.19]\'',80,'\'(0.53375-0.653125]\'',50,'\'(-inf-3.58]\'',1400,'\'(55.36-58.95]\'','\'(40.84-43.98]\'','\'(-inf-1.6]\'','\'(-inf-0.6]\'','\'(2.79-inf)\'','\'(0.3-0.6]\'','\'(31.2-34.4]\'',40,'\'(100.595-104.048]\'',100,noband
19910807,f321,abbey,24780,?,key,yes,benton,gallatin,uncoated,coated,no,line,yes,albert70,802,'\'(6.4-7.3]\'',catalog,?,1910,?,60,0.2,'\'(13.86-15.19]\'',80,'\'(0.53375-0.653125]\'',50,'\'(3.58-7.16]\'',1400,'\'(51.77-55.36]\'','\'(37.7-40.84]\'','\'(4.8-6.4]\'','\'(-inf-0.6]\'','\'(2.79-inf)\'','\'(0.9-1.2]\'','\'(31.2-34.4]\'',40,'\'(100.595-104.048]\'',100,noband
19910817,r18,sheplers,35529,yes,key,yes,benton,gallatin,uncoated,uncoated,no,line,yes,albert70,802,'\'(1.9-2.8]\'',spiegel,?,1910,'\'(44-48.75]\'',58,0.2,'\'(16.52-17.85]\'',72,'\'(0.653125-0.7725]\'',?,'\'(-inf-3.58]\'',1470,'\'(51.77-55.36]\'','\'(40.84-43.98]\'','\'(-inf-1.6]\'','\'(-inf-0.6]\'','\'(2.79-inf)\'','\'(0.9-1.2]\'','\'(31.2-34.4]\'',40,'\'(97.142-100.595]\'',100,noband
19910903,x408,toysrus,35874,no,key,no,benton,gallatin,coated,coated,no,line,no,motter94,824,'\'(1.9-2.8]\'',tabloid,?,1910,'\'(39.25-44]\'',62,0.3,'\'(15.19-16.52]\'',82,'\'(0.7725-0.891875]\'',30,'\'(3.58-7.16]\'',1800,'\'(55.36-58.95]\'','\'(34.56-37.7]\'','\'(9.6-11.2]\'','\'(-inf-0.6]\'','\'(0.62-0.93]\'','\'(0.3-0.6]\'','\'(-inf-31.2]\'',40,'\'(104.048-107.501]\'',100,noband
19910903,x264,toysrus,35874,no,key,no,benton,gallatin,coated,coated,no,line,no,motter94,824,'\'(8.2-9.1]\'',tabloid,?,1911,'\'(39.25-44]\'',62,0.233,'\'(15.19-16.52]\'',78,'\'(0.53375-0.653125]\'',25,'\'(3.58-7.16]\'',1800,'\'(51.77-55.36]\'','\'(37.7-40.84]\'','\'(-inf-1.6]\'','\'(-inf-0.6]\'','\'(1.55-1.86]\'','\'(1.2-1.5]\'','\'(-inf-31.2]\'',40,'\'(100.595-104.048]\'',100,noband
19910729,x201,wards,37508,no,key,yes,benton,gallatin,coated,coated,no,line,yes,motter94,824,'\'(8.2-9.1]\'',tabloid,?,1910,'\'(44-48.75]\'',57,0.233,'\'(13.86-15.19]\'',88,'\'(0.53375-0.653125]\'',30,'\'(7.16-10.74]\'',1900,'\'(51.77-55.36]\'','\'(34.56-37.7]\'','\'(-inf-1.6]\'','\'(-inf-0.6]\'','\'(2.48-2.79]\'','\'(1.8-2.1]\'','\'(-inf-31.2]\'',40,'\'(97.142-100.595]\'',100,noband
19910818,x57,wards,37513,no,key,yes,benton,gallatin,coated,coated,no,line,yes,motter94,824,'\'(1.9-2.8]\'',tabloid,?,1911,'\'(39.25-44]\'',59,0.3,'\'(15.19-16.52]\'',85,'\'(0.7725-0.891875]\'',30,'\'(-inf-3.58]\'',1900,'\'(55.36-58.95]\'','\'(40.84-43.98]\'','\'(9.6-11.2]\'','\'(-inf-0.6]\'','\'(1.86-2.17]\'','\'(0.6-0.9]\'','\'(-inf-31.2]\'',40,'\'(93.689-97.142]\'',100,noband
19910730,x799,roses,35761,no,key,yes,benton,gallatin,coated,coated,no,line,yes,motter94,828,'\'(1.9-2.8]\'',tabloid,?,1910,'\'(34.5-39.25]\'',59,0.2,'\'(15.19-16.52]\'',82,?,28,'\'(-inf-3.58]\'',2500,'\'(55.36-58.95]\'','\'(40.84-43.98]\'','\'(-inf-1.6]\'','\'(-inf-0.6]\'','\'(2.48-2.79]\'','\'(1.2-1.5]\'','\'(-inf-31.2]\'',40,'\'(97.142-100.595]\'',100,noband
19910730,x753,roses,35761,no,key,yes,benton,gallatin,coated,coated,no,line,yes,motter94,828,'\'(8.2-9.1]\'',tabloid,?,1910,'\'(34.5-39.25]\'',59,0.2,'\'(15.19-16.52]\'',84,?,30,'\'(-inf-3.58]\'',2500,'\'(51.77-55.36]\'','\'(43.98-47.12]\'','\'(-inf-1.6]\'','\'(-inf-0.6]\'','\'(2.48-2.79]\'','\'(0.9-1.2]\'','\'(-inf-31.2]\'',40,'\'(97.142-100.595]\'',100,noband
19911211,w90,gurney,37018,no,key,yes,benton,gallatin,coated,coated,no,line,yes,woodhoe70,816,'\'(1.9-2.8]\'',spiegel,?,1911,'\'(39.25-44]\'',47,0.2,'\'(15.19-16.52]\'',78,'\'(0.653125-0.7725]\'',30,'\'(-inf-3.58]\'',2100,'\'(55.36-58.95]\'','\'(40.84-43.98]\'','\'(-inf-1.6]\'','\'(-inf-0.6]\'','\'(2.48-2.79]\'','\'(0.9-1.2]\'','\'(31.2-34.4]\'',40,'\'(107.501-110.954]\'',100,band
19910809,t365,adco,39200,yes,key,yes,benton,gallatin,uncoated,uncoated,no,line,no,woodhoe70,815,'\'(1.9-2.8]\'',catalog,?,1910,'\'(39.25-44]\'',68,0.2,'\'(13.86-15.19]\'',90,'\'(0.891875-1.01125]\'',30,'\'(-inf-3.58]\'',1440,'\'(55.36-58.95]\'','\'(40.84-43.98]\'','\'(-inf-1.6]\'','\'(-inf-0.6]\'','\'(2.48-2.79]\'','\'(0.9-1.2]\'','\'(37.6-40.8]\'',40,'\'(100.595-104.048]\'',100,band
19910806,y270,kmart,37371,no,key,yes,benton,gallatin,uncoated,coated,no,line,yes,woodhoe70,816,'\'(1.9-2.8]\'',tabloid,?,1910,'\'(39.25-44]\'',60,0.2,'\'(13.86-15.19]\'',85,'\'(0.891875-1.01125]\'',25,'\'(3.58-7.16]\'',2100,'\'(51.77-55.36]\'','\'(37.7-40.84]\'','\'(-inf-1.6]\'','\'(-inf-0.6]\'','\'(2.48-2.79]\'','\'(0.9-1.2]\'','\'(34.4-37.6]\'',40,'\'(100.595-104.048]\'',100,band
19910924,t117,hanoverhouse,39027,yes,key,yes,benton,gallatin,uncoated,uncoated,no,line,yes,woodhoe70,816,'\'(1.9-2.8]\'',catalog,?,1911,'\'(48.75-53.5]\'',65,?,'\'(15.19-16.52]\'',80,'\'(0.414375-0.53375]\'',28,'\'(10.74-14.32]\'',1550,'\'(48.18-51.77]\'','\'(34.56-37.7]\'','\'(-inf-1.6]\'','\'(-inf-0.6]\'','\'(2.48-2.79]\'','\'(1.2-1.5]\'','\'(31.2-34.4]\'',40,'\'(104.048-107.501]\'',100,band
19910923,t312,hanoverhouse,39027,yes,key,yes,benton,gallatin,uncoated,uncoated,no,line,no,woodhoe70,816,'\'(8.2-9.1]\'',catalog,?,1910,'\'(48.75-53.5]\'',60,0.267,'\'(15.19-16.52]\'',78,'\'(0.414375-0.53375]\'',28,'\'(3.58-7.16]\'',1520,'\'(51.77-55.36]\'','\'(40.84-43.98]\'','\'(-inf-1.6]\'','\'(-inf-0.6]\'','\'(2.48-2.79]\'','\'(1.2-1.5]\'','\'(31.2-34.4]\'',40,'\'(104.048-107.501]\'',100,band
19910915,g48,ames,37189,no,key,yes,benton,gallatin,coated,coated,no,line,yes,woodhoe70,815,'\'(1.9-2.8]\'',tabloid,?,1910,'\'(39.25-44]\'',63,0.233,'\'(15.19-16.52]\'',80,'\'(0.653125-0.7725]\'',30,'\'(7.16-10.74]\'',2000,'\'(51.77-55.36]\'','\'(34.56-37.7]\'','\'(-inf-1.6]\'','\'(-inf-0.6]\'','\'(2.79-inf)\'','\'(0.9-1.2]\'','\'(31.2-34.4]\'',40,'\'(107.501-110.954]\'',100,band
19910802,t195,wards,37510,no,key,yes,benton,gallatin,coated,coated,no,line,yes,woodhoe70,815,'\'(8.2-9.1]\'',catalog,?,1910,'\'(39.25-44]\'',60,0.2,'\'(13.86-15.19]\'',85,'\'(0.891875-1.01125]\'',35,'\'(-inf-3.58]\'',1250,'\'(55.36-58.95]\'','\'(40.84-43.98]\'','\'(1.6-3.2]\'','\'(-inf-0.6]\'','\'(1.24-1.55]\'','\'(0.9-1.2]\'','\'(-inf-31.2]\'',40,'\'(97.142-100.595]\'',100,band
19910719,f601,bestprod,37964,no,key,yes,benton,gallatin,uncoated,coated,no,line,yes,woodhoe70,815,'\'(1.9-2.8]\'',catalog,?,1910,'\'(39.25-44]\'',69,0.2,'\'(13.86-15.19]\'',76,'\'(0.53375-0.653125]\'',22,'\'(-inf-3.58]\'',1250,'\'(55.36-58.95]\'','\'(40.84-43.98]\'','\'(-inf-1.6]\'','\'(-inf-0.6]\'','\'(2.48-2.79]\'','\'(0.9-1.2]\'','\'(34.4-37.6]\'',40,'\'(97.142-100.595]\'',100,band
19910729,f98,wards,37510,no,key,yes,benton,gallatin,coated,coated,no,line,no,woodhoe70,815,'\'(1.9-2.8]\'',catalog,?,1910,'\'(44-48.75]\'',61,0.2,'\'(13.86-15.19]\'',98,'\'(0.653125-0.7725]\'',30,'\'(-inf-3.58]\'',1600,'\'(55.36-58.95]\'','\'(40.84-43.98]\'','\'(1.6-3.2]\'','\'(-inf-0.6]\'','\'(2.17-2.48]\'','\'(0.9-1.2]\'','\'(-inf-31.2]\'',40,'\'(97.142-100.595]\'',100,band
19910729,i357,bestprod,37965,no,key,yes,benton,gallatin,uncoated,coated,no,line,no,woodhoe70,816,'\'(8.2-9.1]\'',catalog,?,1910,'\'(53.5-58.25]\'',61,0.283,'\'(20.51-21.84]\'',78,'\'(0.891875-1.01125]\'',28,'\'(-inf-3.58]\'',1500,'\'(55.36-58.95]\'','\'(40.84-43.98]\'','\'(1.6-3.2]\'','\'(-inf-0.6]\'','\'(2.48-2.79]\'','\'(0.6-0.9]\'','\'(34.4-37.6]\'',40,'\'(97.142-100.595]\'',100,band
19911209,w92,gurney,37018,no,key,yes,benton,gallatin,coated,coated,no,line,yes,woodhoe70,816,'\'(8.2-9.1]\'',spiegel,?,1911,'\'(39.25-44]\'',52,0.2,'\'(15.19-16.52]\'',82,'\'(0.653125-0.7725]\'',30,'\'(-inf-3.58]\'',2150,'\'(55.36-58.95]\'','\'(40.84-43.98]\'','\'(-inf-1.6]\'','\'(-inf-0.6]\'','\'(2.48-2.79]\'','\'(0.9-1.2]\'','\'(31.2-34.4]\'',40,'\'(107.501-110.954]\'',100,band
19920105,i365,childcraft,34250,yes,key,yes,benton,gallatin,uncoated,cover,no,line,no,woodhoe70,816,'\'(1.9-2.8]\'',catalog,?,1911,'\'(48.75-53.5]\'',47,0.2,'\'(13.86-15.19]\'',80,'\'(0.53375-0.653125]\'',28,'\'(-inf-3.58]\'',1750,'\'(58.95-62.54]\'','\'(40.84-43.98]\'','\'(-inf-1.6]\'','\'(-inf-0.6]\'','\'(0.93-1.24]\'','\'(0.9-1.2]\'','\'(37.6-40.8]\'',40,'\'(90.236-93.689]\'',100,band
19920115,i49,modmat,47301,yes,key,yes,benton,gallatin,uncoated,uncoated,no,line,yes,woodhoe70,816,'\'(1.9-2.8]\'',catalog,?,1910,?,44,0.2,'\'(13.86-15.19]\'',78,'\'(0.175625-0.295]\'',32,'\'(-inf-3.58]\'',1650,'\'(55.36-58.95]\'','\'(40.84-43.98]\'','\'(1.6-3.2]\'','\'(-inf-0.6]\'','\'(2.48-2.79]\'','\'(2.4-2.7]\'','\'(37.6-40.8]\'',40,'\'(97.142-100.595]\'',100,band
19920114,i49,modmat,47301,no,key,yes,benton,gallatin,uncoated,uncoated,no,line,yes,woodhoe70,816,'\'(1.9-2.8]\'',catalog,?,1911,?,43,0.2,'\'(15.19-16.52]\'',78,'\'(0.653125-0.7725]\'',32,'\'(7.16-10.74]\'',1500,'\'(48.18-51.77]\'','\'(37.7-40.84]\'','\'(1.6-3.2]\'','\'(-inf-0.6]\'','\'(2.48-2.79]\'','\'(1.8-2.1]\'','\'(37.6-40.8]\'',40,'\'(104.048-107.501]\'',100,band
19920110,i49,modmat,47301,yes,key,yes,benton,gallatin,uncoated,uncoated,no,line,yes,woodhoe70,816,'\'(1.9-2.8]\'',catalog,?,1911,'\'(53.5-58.25]\'',44,0.2,'\'(13.86-15.19]\'',70,'\'(0.53375-0.653125]\'',28,'\'(7.16-10.74]\'',1700,'\'(48.18-51.77]\'','\'(37.7-40.84]\'','\'(-inf-1.6]\'','\'(-inf-0.6]\'','\'(2.48-2.79]\'','\'(1.8-2.1]\'','\'(37.6-40.8]\'',40,'\'(97.142-100.595]\'',100,band
19911104,g634,toysrus,35880,no,key,no,benton,gallatin,coated,coated,no,line,yes,woodhoe70,816,'\'(1.9-2.8]\'',catalog,?,1910,'\'(39.25-44]\'',38,?,'\'(15.19-16.52]\'',85,'\'(0.53375-0.653125]\'',30,'\'(3.58-7.16]\'',1900,'\'(51.77-55.36]\'','\'(40.84-43.98]\'','\'(-inf-1.6]\'','\'(-inf-0.6]\'','\'(2.79-inf)\'','\'(0.9-1.2]\'','\'(-inf-31.2]\'',40,'\'(100.595-104.048]\'',100,band
19911103,g634,toysrus,35880,no,key,no,benton,gallatin,coated,coated,no,line,?,woodhoe70,816,'\'(1.9-2.8]\'',tabloid,?,1910,'\'(39.25-44]\'',40,?,'\'(15.19-16.52]\'',85,'\'(0.295-0.414375]\'',27,'\'(3.58-7.16]\'',2050,'\'(51.77-55.36]\'','\'(40.84-43.98]\'','\'(-inf-1.6]\'','\'(-inf-0.6]\'','\'(2.48-2.79]\'','\'(1.2-1.5]\'','\'(-inf-31.2]\'',40,'\'(100.595-104.048]\'',100,band
19911102,g69,toysrus,35880,no,key,no,benton,gallatin,coated,coated,no,line,yes,woodhoe70,816,'\'(1.9-2.8]\'',tabloid,?,1911,'\'(39.25-44]\'',40,0.3,'\'(13.86-15.19]\'',75,'\'(0.53375-0.653125]\'',28,'\'(3.58-7.16]\'',2000,'\'(51.77-55.36]\'','\'(40.84-43.98]\'','\'(3.2-4.8]\'','\'(-inf-0.6]\'','\'(2.48-2.79]\'','\'(1.2-1.5]\'','\'(-inf-31.2]\'',40,'\'(114.407-inf)\'',100,band
19911203,x768,tvguide,25550,yes,key,yes,benton,gallatin,uncoated,uncoated,no,line,yes,motter94,821,'\'(6.4-7.3]\'',tabloid,?,1911,'\'(39.25-44]\'',47,0.2,'\'(13.86-15.19]\'',85,'\'(0.653125-0.7725]\'',25,'\'(7.16-10.74]\'',1850,'\'(51.77-55.36]\'','\'(34.56-37.7]\'','\'(1.6-3.2]\'','\'(-inf-0.6]\'','\'(-inf-0.31]\'','\'(-inf-0.3]\'','\'(31.2-34.4]\'',40,'\'(107.501-110.954]\'',100,band
19910920,x13,burdines,37068,no,key,yes,benton,gallatin,coated,coated,no,line,yes,motter94,821,'\'(1.9-2.8]\'',tabloid,?,1911,'\'(39.25-44]\'',49,0.3,'\'(16.52-17.85]\'',75,'\'(0.53375-0.653125]\'',30,'\'(-inf-3.58]\'',1600,'\'(55.36-58.95]\'','\'(40.84-43.98]\'','\'(-inf-1.6]\'','\'(-inf-0.6]\'','\'(2.48-2.79]\'','\'(0.6-0.9]\'','\'(31.2-34.4]\'',40,'\'(107.501-110.954]\'',100,band
19910822,r30,sheplers,35529,yes,key,yes,benton,gallatin,uncoated,uncoated,no,line,yes,albert70,802,'\'(6.4-7.3]\'',spiegel,?,1911,'\'(44-48.75]\'',58,0.217,'\'(12.53-13.86]\'',70,?,55,'\'(7.16-10.74]\'',1660,'\'(48.18-51.77]\'','\'(37.7-40.84]\'','\'(-inf-1.6]\'','\'(-inf-0.6]\'','\'(2.79-inf)\'','\'(0.9-1.2]\'','\'(31.2-34.4]\'',40,'\'(93.689-97.142]\'',100,band
19920220,g407,kidsrus,29442,yes,key,yes,benton,gallatin,uncoated,cover,no,line,yes,woodhoe70,816,'\'(1.9-2.8]\'',tabloid,?,1910,'\'(48.75-53.5]\'',40,0.2,'\'(15.19-16.52]\'',78,'\'(0.891875-1.01125]\'',24,'\'(-inf-3.58]\'',1850,'\'(55.36-58.95]\'','\'(40.84-43.98]\'','\'(-inf-1.6]\'','\'(-inf-0.6]\'','\'(2.79-inf)\'','\'(0.9-1.2]\'','\'(37.6-40.8]\'',40,'\'(100.595-104.048]\'',100,band
19910724,f620,uscav,35522,yes,key,yes,benton,gallatin,uncoated,uncoated,no,line,no,albert70,802,'\'(1.9-2.8]\'',catalog,?,1911,'\'(39.25-44]\'',65,0.2,'\'(13.86-15.19]\'',80,'\'(0.53375-0.653125]\'',50,'\'(7.16-10.74]\'',1640,'\'(44.59-48.18]\'','\'(40.84-43.98]\'','\'(-inf-1.6]\'','\'(-inf-0.6]\'','\'(2.79-inf)\'','\'(1.2-1.5]\'','\'(31.2-34.4]\'',40,'\'(100.595-104.048]\'',100,band
19910917,x160,colortile,37575,no,key,yes,benton,gallatin,coated,coated,no,line,yes,motter94,824,'\'(1.9-2.8]\'',tabloid,?,1910,'\'(29.75-34.5]\'',?,0.3,'\'(16.52-17.85]\'',78,'\'(0.7725-0.891875]\'',30,'\'(-inf-3.58]\'',1700,'\'(55.36-58.95]\'','\'(40.84-43.98]\'','\'(-inf-1.6]\'','\'(-inf-0.6]\'','\'(2.48-2.79]\'','\'(0.9-1.2]\'','\'(-inf-31.2]\'',40,'\'(104.048-107.501]\'',100,band
19920205,x7,colortile,34272,yes,key,yes,benton,gallatin,coated,coated,no,line,yes,motter94,824,'\'(8.2-9.1]\'',tabloid,?,1910,'\'(29.75-34.5]\'',40,0.2,'\'(13.86-15.19]\'',73,'\'(0.53375-0.653125]\'',30,'\'(-inf-3.58]\'',1800,'\'(55.36-58.95]\'','\'(40.84-43.98]\'','\'(-inf-1.6]\'','\'(-inf-0.6]\'','\'(-inf-0.31]\'','\'(-inf-0.3]\'','\'(-inf-31.2]\'',40,'\'(97.142-100.595]\'',100,band
19910810,i324,childcraft,37001,yes,key,yes,benton,gallatin,uncoated,uncoated,no,line,yes,albert70,802,'\'(6.4-7.3]\'',catalog,?,1911,'\'(48.75-53.5]\'',62,0.267,'\'(-inf-12.53]\'',80,?,50,'\'(-inf-3.58]\'',1570,'\'(55.36-58.95]\'','\'(40.84-43.98]\'','\'(-inf-1.6]\'','\'(-inf-0.6]\'','\'(2.79-inf)\'','\'(0.9-1.2]\'','\'(37.6-40.8]\'',40,'\'(100.595-104.048]\'',100,band
19910817,r6,sheplers,35529,yes,key,yes,benton,gallatin,uncoated,uncoated,no,line,yes,albert70,802,'\'(6.4-7.3]\'',spiegel,?,1910,'\'(44-48.75]\'',63,0.267,'\'(13.86-15.19]\'',80,'\'(0.653125-0.7725]\'',50,'\'(-inf-3.58]\'',1470,'\'(55.36-58.95]\'','\'(40.84-43.98]\'','\'(1.6-3.2]\'','\'(-inf-0.6]\'','\'(2.79-inf)\'','\'(0.9-1.2]\'','\'(31.2-34.4]\'',40,'\'(97.142-100.595]\'',100,band
19910724,m374,uscav,35522,yes,key,yes,benton,gallatin,uncoated,uncoated,no,line,no,albert70,802,'\'(6.4-7.3]\'',catalog,?,1911,'\'(34.5-39.25]\'',65,0.2,'\'(15.19-16.52]\'',80,'\'(0.53375-0.653125]\'',50,'\'(3.58-7.16]\'',1640,'\'(51.77-55.36]\'','\'(37.7-40.84]\'','\'(1.6-3.2]\'','\'(-inf-0.6]\'','\'(2.79-inf)\'','\'(0.9-1.2]\'','\'(31.2-34.4]\'',40,'\'(100.595-104.048]\'',100,band
19920208,aa1,kmart,34514,no,key,yes,benton,gallatin,uncoated,coated,no,line,yes,motter94,821,'\'(6.4-7.3]\'',tabloid,?,1910,'\'(39.25-44]\'',39,0.2,'\'(13.86-15.19]\'',83,'\'(0.53375-0.653125]\'',30,'\'(-inf-3.58]\'',2000,'\'(55.36-58.95]\'','\'(40.84-43.98]\'','\'(-inf-1.6]\'','\'(-inf-0.6]\'','\'(2.48-2.79]\'','\'(0.3-0.6]\'','\'(34.4-37.6]\'',40,'\'(97.142-100.595]\'',100,band
19920207,aa17,kmart,34514,no,key,yes,benton,gallatin,uncoated,coated,no,line,yes,motter94,821,'\'(6.4-7.3]\'',tabloid,?,1911,'\'(39.25-44]\'',39,0.2,'\'(13.86-15.19]\'',72,'\'(0.295-0.414375]\'',30,'\'(-inf-3.58]\'',2000,'\'(55.36-58.95]\'','\'(40.84-43.98]\'','\'(-inf-1.6]\'','\'(-inf-0.6]\'','\'(2.48-2.79]\'','\'(-inf-0.3]\'','\'(34.4-37.6]\'',40,'\'(107.501-110.954]\'',100,band
19910730,x139,tvguide,25532,yes,key,yes,benton,gallatin,uncoated,uncoated,no,line,yes,motter94,821,'\'(1.9-2.8]\'',tabloid,?,1910,'\'(39.25-44]\'',59,0.25,'\'(13.86-15.19]\'',80,'\'(0.653125-0.7725]\'',40,'\'(10.74-14.32]\'',1750,'\'(48.18-51.77]\'','\'(34.56-37.7]\'','\'(-inf-1.6]\'','\'(-inf-0.6]\'','\'(2.17-2.48]\'','\'(0.6-0.9]\'','\'(31.2-34.4]\'',40,'\'(97.142-100.595]\'',100,band
19920408,t233,bestprod,37998,no,key,?,?,gallatin,uncoated,coated,no,?,?,woodhoe70,815,'\'(1.9-2.8]\'',?,?,1910,'\'(29.75-34.5]\'',50,0.233,'\'(15.19-16.52]\'',79,'\'(0.53375-0.653125]\'',25,?,1400,?,?,?,?,'\'(2.48-2.79]\'','\'(0.9-1.2]\'',?,40,'\'(104.048-107.501]\'',100,band
19920402,x216,guideposts,23233,yes,key,?,?,gallatin,uncoated,coated,no,?,yes,motter94,821,'\'(6.4-7.3]\'',?,?,1911,'\'(39.25-44]\'',40,0.3,'\'(13.86-15.19]\'',72,'\'(0.53375-0.653125]\'',34,?,1620,?,?,?,?,'\'(2.48-2.79]\'','\'(1.2-1.5]\'',?,40,'\'(100.595-104.048]\'',100,band
19920317,aa43,kmart,34518,no,key,?,?,gallatin,uncoated,coated,no,?,no,motter94,821,'\'(6.4-7.3]\'',?,?,1911,'\'(44-48.75]\'',36,?,'\'(13.86-15.19]\'',76,'\'(0.53375-0.653125]\'',20,?,1700,?,?,?,?,'\'(1.86-2.17]\'','\'(0.9-1.2]\'',?,40,'\'(97.142-100.595]\'',100,band
19920402,j29,penney,34014,no,key,?,?,gallatin,uncoated,coated,no,?,?,woodhoe70,816,'\'(8.2-9.1]\'',tabloid,?,1910,'\'(39.25-44]\'',40,0.3,'\'(15.19-16.52]\'',75,'\'(0.653125-0.7725]\'',25,?,1100,?,?,?,?,'\'(2.48-2.79]\'','\'(0.9-1.2]\'',?,40,'\'(100.595-104.048]\'',100,band
19920405,x129,woolworth,34227,no,key,?,?,gallatin,coated,coated,no,?,yes,motter94,824,'\'(8.2-9.1]\'',tabloid,?,1910,'\'(34.5-39.25]\'',42,0.2,'\'(13.86-15.19]\'',78,'\'(0.53375-0.653125]\'',40,?,1750,?,?,?,?,'\'(2.17-2.48]\'','\'(0.9-1.2]\'',?,40,'\'(100.595-104.048]\'',100,band
19920416,g648,roses,36423,no,key,?,?,gallatin,coated,coated,no,?,yes,woodhoe70,815,'\'(1.9-2.8]\'',tabloid,?,1910,'\'(53.5-58.25]\'',51,0.25,'\'(15.19-16.52]\'',78,'\'(0.414375-0.53375]\'',29,?,1800,?,?,?,?,'\'(1.24-1.55]\'','\'(0.9-1.2]\'',?,40,'\'(97.142-100.595]\'',100,band
19920326,x66,roses,34294,no,key,?,?,gallatin,coated,coated,no,?,yes,motter94,821,'\'(1.9-2.8]\'',tabloid,?,1910,'\'(34.5-39.25]\'',48,0.267,'\'(15.19-16.52]\'',72,'\'(0.653125-0.7725]\'',20,?,1650,?,?,?,?,'\'(1.24-1.55]\'','\'(0.9-1.2]\'',?,40,'\'(-inf-86.783]\'',100,band
19920320,g38,roses,34293,no,key,?,?,gallatin,coated,coated,no,?,yes,woodhoe70,816,'\'(1.9-2.8]\'',tabloid,?,1910,'\'(44-48.75]\'',50,0.2,'\'(16.52-17.85]\'',70,'\'(0.414375-0.53375]\'',30,?,2000,?,?,?,?,'\'(2.17-2.48]\'','\'(0.6-0.9]\'',?,40,'\'(100.595-104.048]\'',100,band
19920515,x13,toysrus,34156,no,key,?,?,gallatin,coated,coated,no,?,yes,motter94,824,'\'(9.1-inf)\'',tabloid,?,1911,'\'(39.25-44]\'',52,?,'\'(12.53-13.86]\'',85,'\'(0.653125-0.7725]\'',30,?,1900,?,?,?,?,'\'(-inf-0.31]\'','\'(-inf-0.3]\'',?,40,'\'(93.689-97.142]\'',100,band
19920523,o5,target,34453,no,key,?,?,gallatin,uncoated,coated,no,?,yes,motter94,827,'\'(1.9-2.8]\'',spiegel,?,1911,'\'(44-48.75]\'',53,0.233,'\'(16.52-17.85]\'',80,'\'(0.53375-0.653125]\'',20,?,1850,?,?,?,?,'\'(1.86-2.17]\'','\'(1.2-1.5]\'',?,40,'\'(104.048-107.501]\'',100,band
19920529,r38,target,34453,no,key,?,?,gallatin,uncoated,coated,no,?,yes,woodhoe70,816,'\'(8.2-9.1]\'',spiegel,?,1910,'\'(48.75-53.5]\'',56,0.3,'\'(13.86-15.19]\'',80,'\'(0.175625-0.295]\'',26,?,1950,?,?,?,?,'\'(2.48-2.79]\'','\'(1.2-1.5]\'',?,40,'\'(100.595-104.048]\'',100,band
19920530,x36,cvs,34763,yes,key,?,?,gallatin,uncoated,uncoated,no,?,?,motter94,824,'\'(1.9-2.8]\'',tabloid,?,1911,'\'(53.5-58.25]\'',56,0.3,'\'(20.51-21.84]\'',80,'\'(0.7725-0.891875]\'',35,?,1650,?,?,?,?,'\'(1.86-2.17]\'','\'(0.3-0.6]\'',?,40,'\'(97.142-100.595]\'',100,band
19920531,x196,cvs,34763,yes,key,?,?,gallatin,uncoated,uncoated,no,?,yes,motter94,824,'\'(1.9-2.8]\'',tabloid,?,1910,'\'(53.5-58.25]\'',54,0.3,'\'(16.52-17.85]\'',82,'\'(0.7725-0.891875]\'',28,?,1600,?,?,?,?,'\'(2.48-2.79]\'','\'(0.9-1.2]\'',?,40,'\'(100.595-104.048]\'',100,band
19920603,x292,toysrus,34157,no,key,?,?,gallatin,uncoated,uncoated,no,?,yes,motter94,824,'\'(1.9-2.8]\'',tabloid,?,1910,'\'(39.25-44]\'',57,0.3,'\'(15.19-16.52]\'',86,'\'(0.7725-0.891875]\'',30,?,1700,?,?,?,?,'\'(2.48-2.79]\'','\'(0.9-1.2]\'',?,40,'\'(100.595-104.048]\'',100,band
19920610,r25,target,34465,no,key,?,?,gallatin,coated,coated,no,?,yes,woodhoe70,816,'\'(-inf-1.9]\'',spiegel,?,1910,'\'(34.5-39.25]\'',56,0.267,'\'(13.86-15.19]\'',81,'\'(0.653125-0.7725]\'',32,?,2000,?,?,?,?,'\'(2.48-2.79]\'','\'(0.9-1.2]\'',?,40,'\'(100.595-104.048]\'',100,band
19920705,aa40,kmart,34527,?,key,?,?,gallatin,uncoated,coated,no,?,yes,motter94,821,'\'(6.4-7.3]\'',spiegel,?,1910,'\'(48.75-53.5]\'',66,0.3,'\'(13.86-15.19]\'',80,'\'(0.53375-0.653125]\'',30,?,1840,?,?,?,?,'\'(2.48-2.79]\'','\'(0.9-1.2]\'',?,40,'\'(97.142-100.595]\'',100,band
19920709,i347,modmat,47304,yes,key,?,?,gallatin,uncoated,uncoated,no,?,yes,woodhoe70,815,'\'(8.2-9.1]\'',catalog,?,1911,'\'(48.75-53.5]\'',67,0.3,'\'(13.86-15.19]\'',86,'\'(0.653125-0.7725]\'',22,?,1300,?,?,?,?,'\'(2.48-2.79]\'','\'(1.8-2.1]\'',?,40,'\'(100.595-104.048]\'',100,band
19920808,1351,homeshop,36567,?,key,?,?,gallatin,coated,coated,no,?,no,albert70,816,'\'(1.9-2.8]\'',catalog,?,1910,?,62,0.333,'\'(13.86-15.19]\'',84,?,23,?,1200,?,?,?,?,'\'(2.48-2.79]\'',?,?,40,'\'(100.595-104.048]\'',100,band
19920822,aa28,kmart,34533,?,key,?,?,gallatin,super,uncoated,no,?,yes,motter94,821,'\'(1.9-2.8]\'',tabloid,?,1910,?,63,0.233,'\'(15.19-16.52]\'',79,'\'(0.53375-0.653125]\'',35,?,1760,?,?,?,?,'\'(2.17-2.48]\'','\'(0.9-1.2]\'',?,40,'\'(104.048-107.501]\'',100,band
19920826,f131,hanoverhouse,34905,?,key,?,?,gallatin,coated,coated,no,?,yes,albert70,816,'\'(8.2-9.1]\'',catalog,?,1910,?,67,0.300,'\'(13.86-15.19]\'',80,'\'(0.653125-0.7725]\'',28,?,1780,?,?,?,?,'\'(2.48-2.79]\'','\'(0.9-1.2]\'',?,40,'\'(104.048-107.501]\'',100,band
19920911,aa58,kmart,34534,?,key,?,?,gallatin,super,uncoated,no,?,yes,motter94,821,'\'(6.4-7.3]\'',spiegel,?,1911,?,50,0.333,'\'(15.19-16.52]\'',82,?,30,?,1850,?,?,?,?,?,?,?,40,'\'(100.595-104.048]\'',100,band
19920915,aa45,kmart,34534,?,key,?,?,gallatin,super,uncoated,no,?,yes,motter94,821,'\'(6.4-7.3]\'',spiegel,?,1911,?,60,0.300,'\'(13.86-15.19]\'',82,'\'(0.414375-0.53375]\'',22,?,1800,?,?,?,?,'\'(2.48-2.79]\'','\'(0.9-1.2]\'',?,40,'\'(93.689-97.142]\'',100,band
19920918,aa29,kmart,34534,?,key,?,?,gallatin,super,uncoated,no,?,yes,motter94,821,'\'(6.4-7.3]\'',spiegel,?,1911,?,60,0.267,'\'(13.86-15.19]\'',80,'\'(0.53375-0.653125]\'',25,?,1850,?,?,?,?,'\'(2.48-2.79]\'','\'(0.9-1.2]\'',?,40,'\'(93.689-97.142]\'',100,band
19920920,aa43,kmart,34534,?,key,?,?,gallatin,super,uncoated,no,?,yes,motter94,821,'\'(6.4-7.3]\'',spiegel,?,?,?,56,0.300,'\'(13.86-15.19]\'',82,'\'(0.53375-0.653125]\'',40,?,1800,?,?,?,?,'\'(2.48-2.79]\'','\'(0.9-1.2]\'',?,40,'\'(93.689-97.142]\'',100,band
19920712,i366,homeshopping,36568,?,key,?,?,gallatin,super,uncoated,no,?,?,albert70,816,'\'(1.9-2.8]\'',catalog,?,1911,?,56,0.367,'\'(13.86-15.19]\'',78,'\'(0.414375-0.53375]\'',29,?,1320,?,?,?,?,'\'(2.48-2.79]\'',?,?,40,'\'(93.689-97.142]\'',100,band
19921001,t31,bestprod,36054,?,key,?,?,gallatin,super,uncoated,no,?,yes,albert70,816,'\'(1.9-2.8]\'',catalog,?,1911,?,47,0.200,'\'(13.86-15.19]\'',85,'\'(0.414375-0.53375]\'',24,?,1470,?,?,?,?,'\'(1.55-1.86]\'','\'(1.5-1.8]\'',?,40,'\'(93.689-97.142]\'',100,band
19921004,aa067,venture,24780,?,key,?,?,gallatin,super,uncoated,no,?,yes,motter94,821,'\'(6.4-7.3]\'',tabloid,?,1911,?,55,0.367,'\'(15.19-16.52]\'',76,'\'(0.653125-0.7725]\'',30,?,1750,?,?,?,?,'\'(2.48-2.79]\'','\'(0.9-1.2]\'',?,40,'\'(93.689-97.142]\'',100,band
19921125,i25,homeshop,36569,?,key,?,?,gallatin,super,cover,no,?,yes,albert70,816,'\'(1.9-2.8]\'',catalog,?,1910,?,53,0.300,'\'(13.86-15.19]\'',72,'\'(0.891875-1.01125]\'',28,?,1600,?,?,?,?,'\'(2.48-2.79]\'','\'(1.2-1.5]\'',?,40,'\'(104.048-107.501]\'',100,band
19921129,i400,homeshop,36569,?,key,?,?,gallatin,super,cover,no,?,yes,albert70,816,'\'(1.9-2.8]\'',catalog,?,1910,?,39,0.300,'\'(13.86-15.19]\'',71,'\'(0.53375-0.653125]\'',30,?,1700,?,?,?,?,'\'(2.48-2.79]\'','\'(1.2-1.5]\'',?,40,'\'(104.048-107.501]\'',100,band
19930113,i305,modmat,47401,?,key,?,?,gallatin,coated,coated,no,?,yes,albert70,816,'\'(1.9-2.8]\'',catalog,?,1911,?,46,0.300,'\'(16.52-17.85]\'',80,'\'(0.175625-0.295]\'',25,?,1700,?,?,?,?,'\'(2.48-2.79]\'','\'(1.2-1.5]\'',?,30,'\'(114.407-inf)\'',95,band
19930205,r32,target,35502,?,key,?,?,gallatin,super,uncoated,?,?,yes,albert70,815,'\'(1.9-2.8]\'',spiegel,?,1910,?,35,0.300,'\'(15.19-16.52]\'',88,'\'(0.414375-0.53375]\'',28,?,1750,?,?,?,?,'\'(2.17-2.48]\'','\'(0.9-1.2]\'',?,40,'\'(104.048-107.501]\'',100,band
19930217,w368,jfk,35986,?,key,?,?,gallatin,coated,coated,?,?,yes,woodhoe70,802,'\'(6.4-7.3]\'',spiegel,?,1910,?,40,0.333,'\'(13.86-15.19]\'',70,'\'(0.653125-0.7725]\'',60,?,1250,?,?,?,?,'\'(1.86-2.17]\'','\'(1.2-1.5]\'',?,40,'\'(110.954-114.407]\'',100,band
19930219,t30,colorfulimage,37046,?,key,?,?,gallatin,coated,coated,?,?,yes,woodhoe70,802,'\'(6.4-7.3]\'',catalog,?,1911,?,39,0.300,'\'(15.19-16.52]\'',72,'\'(0.653125-0.7725]\'',50,?,1350,?,?,?,?,'\'(2.48-2.79]\'','\'(2.1-2.4]\'',?,40,'\'(104.048-107.501]\'',95,band
19930227,m337,bestprod,35831,?,key,?,?,gallatin,super,cover,?,?,yes,albert70,815,'\'(1.9-2.8]\'',catalog,?,1911,?,40,0.300,'\'(15.19-16.52]\'',84,'\'(0.53375-0.653125]\'',26,?,1565,?,?,?,?,'\'(2.48-2.79]\'','\'(0.9-1.2]\'',?,40,'\'(104.048-107.501]\'',95,band
19930309,aa56,kmart,85725,?,key,?,?,gallatin,super,uncoated,?,?,yes,motter94,821,'\'(6.4-7.3]\'',tabloid,?,1910,?,44,.200,'\'(15.19-16.52]\'',74,'\'(0.653125-0.7725]\'',30,?,2200,?,?,?,?,'\'(2.79-inf)\'','\'(0.6-0.9]\'',?,40,'\'(104.048-107.501]\'',95,band
19930407,g433,toysrus,35661,?,key,?,?,gallatin,uncoated,uncoated,?,?,yes,albert70,816,'\'(1.9-2.8]\'',tabloid,?,1910,?,47,0.233,'\'(15.19-16.52]\'',86,'\'(0.175625-0.295]\'',?,?,1750,?,?,?,?,'\'(1.86-2.17]\'','\'(1.8-2.1]\'',?,40,'\'(107.501-110.954]\'',95,band
19930421,x799,eckerds,37392,?,key,?,?,gallatin,uncoated,uncoated,?,?,yes,motter94,824,'\'(1.9-2.8]\'',tabloid,?,1910,?,45,0.200,'\'(16.52-17.85]\'',84,'\'(0.7725-0.891875]\'',27,?,1865,?,?,?,?,'\'(1.24-1.55]\'','\'(0.6-0.9]\'',?,40,'\'(107.501-110.954]\'',95,band
19930514,i46,modmat,47403,?,key,?,?,gallatin,coated,coated,?,?,yes,albert70,816,'\'(1.9-2.8]\'',catalog,?,1911,?,52,0.200,'\'(15.19-16.52]\'',75,'\'(0.295-0.414375]\'',25,?,1500,?,?,?,?,'\'(2.48-2.79]\'','\'(0.3-0.6]\'',?,40,'\'(107.501-110.954]\'',100,band
19930624,y209,kmart,85741,?,key,?,?,gallatin,uncoated,uncoated,?,?,?,albert70,816,'\'(1.9-2.8]\'',tabloid,?,1911,?,?,0.300,'\'(13.86-15.19]\'',80,'\'(0.414375-0.53375]\'',30,?,2020,?,?,?,?,'\'(2.79-inf)\'','\'(0.3-0.6]\'',?,40,'\'(107.501-110.954]\'',100,band
19930906,e302,kmart,85750,?,key,?,?,gallatin,super,uncoated,?,?,yes,motter94,827,'\'(1.9-2.8]\'',tabloid,?,1911,?,54,0.300,'\'(15.19-16.52]\'',88,'\'(0.653125-0.7725]\'',25,?,1850,?,?,?,?,'\'(2.79-inf)\'','\'(1.8-2.1]\'',?,40,'\'(104.048-107.501]\'',95,band
19930908,i311,modmat,47405,?,key,?,?,gallatin,coated,coated,?,?,yes,albert70,815,'\'(1.9-2.8]\'',catalog,?,1911,?,56,0.300,'\'(13.86-15.19]\'',91,'\'(1.01125-1.130625]\'',27,?,1650,?,?,?,?,'\'(2.79-inf)\'','\'(1.2-1.5]\'',?,40,'\'(97.142-100.595]\'',95,band
19930915,t26,toysrus,37191,?,key,?,?,gallatin,coated,coated,?,?,yes,albert70,815,'\'(1.9-2.8]\'',catalog,?,1911,?,50,0.200,'\'(15.19-16.52]\'',74,'\'(0.53375-0.653125]\'',34,?,1750,?,?,?,?,'\'(2.48-2.79]\'','\'(0.9-1.2]\'',?,40,'\'(100.595-104.048]\'',95,band
19930916,t26,homeshop,35069,?,key,?,?,gallatin,coated,coated,?,?,yes,albert70,816,'\'(8.2-9.1]\'',catalog,?,1911,?,56,0.200,'\'(16.52-17.85]\'',75,'\'(0.653125-0.7725]\'',25,?,1600,?,?,?,?,'\'(1.86-2.17]\'','\'(0.9-1.2]\'',?,40,'\'(100.595-104.048]\'',95,band
19930928,m272,toysrus,37191,?,key,?,?,gallatin,coated,coated,?,?,yes,albert70,815,'\'(8.2-9.1]\'',catalog,?,1910,?,55,0.200,'\'(16.52-17.85]\'',95,'\'(0.53375-0.653125]\'',27,?,1600,?,?,?,?,'\'(2.48-2.79]\'','\'(0.9-1.2]\'',?,40,'\'(104.048-107.501]\'',100,band
19931008,ee304,jcp,35425,?,key,?,?,gallatin,super,uncoated,?,?,yes,motter94,821,'\'(6.4-7.3]\'',tabloid,?,1911,?,54,0.267,'\'(15.19-16.52]\'',80,'\'(0.653125-0.7725]\'',40,?,2000,?,?,?,?,'\'(1.55-1.86]\'','\'(1.2-1.5]\'',?,40,'\'(104.048-107.501]\'',?,band
19940904,x255,walmart,71331,?,key,?,?,gallatin,super,uncoated,?,?,?,motter94,824,'\'(1.9-2.8]\'',tabloid,?,1911,?,54,?,'\'(15.19-16.52]\'',78,'\'(0.7725-0.891875]\'',30,?,2100,?,?,?,?,'\'(0.93-1.24]\'','\'(0.9-1.2]\'',?,40,'\'(93.689-97.142]\'',100,band
19941004,aa97,kmart,85813,?,key,?,?,gallatin,super,coated,?,?,yes,motter94,828,'\'(1.9-2.8]\'',tabloid,?,1910,?,53,?,'\'(16.52-17.85]\'',73,'\'(0.653125-0.7725]\'',35,?,2100,?,?,?,?,'\'(2.48-2.79]\'','\'(1.2-1.5]\'',?,40,'\'(110.954-114.407]\'',100,band
19941001,e78,eckerd,38240,?,key,?,?,gallatin,uncoated,uncoated,?,?,no,motter94,828,'\'(1.9-2.8]\'',tabloid,?,1911,?,?,?,'\'(15.19-16.52]\'',83,?,28,?,2400,?,?,?,?,'\'(2.48-2.79]\'','\'(0.9-1.2]\'',?,40,'\'(110.954-114.407]\'',100,band
19940927,e38,eckerd,38240,?,key,?,?,gallatin,uncoated,uncoated,?,?,yes,motter94,828,'\'(8.2-9.1]\'',tabloid,?,1911,?,60,?,'\'(13.86-15.19]\'',76,'\'(0.891875-1.01125]\'',30,?,2500,?,?,?,?,'\'(0.31-0.62]\'','\'(0.3-0.6]\'',?,40,'\'(110.954-114.407]\'',100,band
19941007,aa7,kmart,85813,?,key,?,?,gallatin,super,uncoated,?,?,?,motter94,827,'\'(1.9-2.8]\'',tabloid,?,1910,?,56,0.300,'\'(17.85-19.18]\'',80,'\'(0.891875-1.01125]\'',32,?,1900,?,?,?,?,?,?,?,40,'\'(107.501-110.954]\'',100,band
19941005,aa66,kmart,85813,?,key,?,?,gallatin,super,uncoated,?,?,?,motter94,827,'\'(8.2-9.1]\'',tabloid,?,1910,?,52,?,'\'(17.85-19.18]\'',82,'\'(0.891875-1.01125]\'',25,?,1880,?,?,?,?,'\'(0.93-1.24]\'','\'(0.9-1.2]\'',?,40,'\'(110.954-114.407]\'',100,band
19941009,j44,best,38064,?,key,?,?,gallatin,super,coated,?,?,yes,albert70,815,'\'(-inf-1.9]\'',tabloid,?,1910,?,?,0.200,'\'(15.19-16.52]\'',76,'\'(0.414375-0.53375]\'',34,?,2100,?,?,?,?,'\'(-inf-0.31]\'','\'(-inf-0.3]\'',?,40,'\'(107.501-110.954]\'',100,band
19941009,aa58,kmart,85814,?,key,?,?,gallatin,super,coated,?,?,?,motter94,827,'\'(1.9-2.8]\'',tabloid,?,1910,?,?,0.300,'\'(15.19-16.52]\'',70,'\'(0.891875-1.01125]\'',34,?,1903,?,?,?,?,'\'(2.48-2.79]\'','\'(2.7-inf)\'',?,40,'\'(107.501-110.954]\'',100,band
19941010,aa70,kmart,85814,?,key,?,?,gallatin,super,uncoated,?,?,?,motter94,828,'\'(1.9-2.8]\'',tabloid,?,1910,?,46,0.267,'\'(15.19-16.52]\'',76,'\'(0.891875-1.01125]\'',34,?,1903,?,?,?,?,'\'(1.24-1.55]\'','\'(2.1-2.4]\'',?,40,'\'(107.501-110.954]\'',100,band
19941010,j70,best,38064,?,key,?,?,gallatin,super,uncoated,?,?,yes,albert70,815,'\'(-inf-1.9]\'',tabloid,?,1910,?,46,0.200,'\'(13.86-15.19]\'',75,'\'(0.653125-0.7725]\'',25,?,2050,?,?,?,?,'\'(2.48-2.79]\'','\'(0.9-1.2]\'',?,40,'\'(107.501-110.954]\'',100,band